%nprocshared=16
%mem=2000MW
%chk=c2sdimersiohts.chk
# opt=(qst2,maxcycle=1600) freq wb97xd/6-311++g(d,p)
scrf=(cpcm,solvent=water) nosymm scf=maxcycle=800

Title Card Required

-1 1
 Si                -0.11816839   -0.36189069    0.00000000
 O                 -1.94832339   -0.37916569   -0.01000700
 O                 -0.22327039   -0.67297369   -1.69211600
 O                 -0.02408639    1.28855531    0.36961900
 O                 -0.25821485   -1.68257717    1.40437766
 Ca                -3.59359139    1.07967731   -1.03748000
 O                 -3.50703239   -1.25278669   -2.04466600
 O                 -2.09190639    2.73508331   -0.55427400
 O                 -1.76197239    1.39326131   -2.80824200
 H                 -2.68964239   -1.35346569   -1.51795500
 H                 -3.27326739   -1.45136569   -2.95773200
 H                 -0.82300639    1.83721931    0.13223900
 H                 -2.13202639    3.65689231   -0.28963600
 H                 -1.15251739    0.66980531   -2.55042500
 H                 -1.59790339    2.11420231   -2.15262300
 H                  0.62407115   -1.94983217    1.68088066
 H                  0.65372761   -0.66292269   -2.11003300
 Si                 2.82159361    0.24512931   -0.78221700
 O                  4.33365761   -0.15004869   -0.38463500
 O                  2.52064961    1.87883831   -0.56768900
 O                  2.59938161   -0.05597269   -2.43602500
 O                  1.64280361   -0.56087969    0.02578900
 Ca                 5.90107561   -0.87089769   -2.06740000
 O                  6.68998061    0.92130331   -0.44456600
 O                  5.80505161   -2.24487369    0.05262600
 O                  4.24384961   -1.91858769   -3.13914500
 O                  4.98103661    0.99086431   -3.42690200
 H                  5.05083161   -1.61674169    0.19655800
 H                  5.44611961   -3.13741669    0.09469600
 H                  5.73748461    0.83300331   -0.18147000
 H                  6.85404961    1.85141031   -0.63086300
 H                  3.10790761   -0.88344269   -2.74868800
 H                  3.97790861   -2.83733769   -3.21792500
 H                  4.01995061    0.87578431   -3.26115500
 H                  5.17111161    1.92715331   -3.30240800
 H                  1.61457261    1.96792431   -0.20474000
 O                 -5.57760639    1.34259231   -0.24503200
 H                 -1.84180166   -0.80488585    0.84716785
 H                 -6.46240539    1.47118631    0.09613800

c2sdimersiohts

-1 1
 Si                -0.11816839   -0.36189069    0.00000000
 O                 -1.94832339   -0.37916569   -0.01000700
 O                 -0.22327039   -0.67297369   -1.69211600
 O                 -0.02408639    1.28855531    0.36961900
 O                 -0.72398503   -1.80582725    1.50491831
 Ca                -3.59359139    1.07967731   -1.03748000
 O                 -3.50703239   -1.25278669   -2.04466600
 O                 -2.09190639    2.73508331   -0.55427400
 O                 -1.76197239    1.39326131   -2.80824200
 H                 -2.68964239   -1.35346569   -1.51795500
 H                 -3.27326739   -1.45136569   -2.95773200
 H                 -0.82300639    1.83721931    0.13223900
 H                 -2.13202639    3.65689231   -0.28963600
 H                 -1.15251739    0.66980531   -2.55042500
 H                 -1.59790339    2.11420231   -2.15262300
 H                  0.07737443   -2.17535124    1.88908333
 H                  0.65372761   -0.66292269   -2.11003300
 Si                 2.82159361    0.24512931   -0.78221700
 O                  4.33365761   -0.15004869   -0.38463500
 O                  2.52064961    1.87883831   -0.56768900
 O                  2.59938161   -0.05597269   -2.43602500
 O                  1.64280361   -0.56087969    0.02578900
 Ca                 5.90107561   -0.87089769   -2.06740000
 O                  6.68998061    0.92130331   -0.44456600
 O                  5.80505161   -2.24487369    0.05262600
 O                  4.24384961   -1.91858769   -3.13914500
 O                  4.98103661    0.99086431   -3.42690200
 H                  5.05083161   -1.61674169    0.19655800
 H                  5.44611961   -3.13741669    0.09469600
 H                  5.73748461    0.83300331   -0.18147000
 H                  6.85404961    1.85141031   -0.63086300
 H                  3.10790761   -0.88344269   -2.74868800
 H                  3.97790861   -2.83733769   -3.21792500
 H                  4.01995061    0.87578431   -3.26115500
 H                  5.17111161    1.92715331   -3.30240800
 H                  1.61457261    1.96792431   -0.20474000
 O                 -5.57760639    1.34259231   -0.24503200
 H                 -1.50822560   -1.17369766    1.08191102
 H                 -6.46240539    1.47118631    0.09613800

