%nprocshared=32
%mem=2000MW
%chk=c2sdimertsnw.chk
# opt=(qst3,maxcycle=1600) freq wb97xd/6-311++g(d,p)
scrf=(cpcm,solvent=water) nosymm scf=maxcycle=800

Title Card Required

-1 1
 Si                 0.67946825   -0.09601182    0.00000000
 O                 -0.96792975    0.02860418   -0.03680100
 O                  0.88750925   -0.38433682   -1.67730100
 O                  1.12187525    1.44208918    0.52613300
 O                  0.85983625   -1.36271082    1.09495400
 Ca                -2.22863675    1.78189818   -0.93045400
 O                 -2.85863775   -0.65969582   -1.60846800
 O                 -2.84804675    0.93305018    1.42247800
 O                 -0.84303575    3.17551018    0.08267700
 O                 -0.82471975    1.28261318   -2.86465900
 H                 -2.02133475    0.44981718    1.12708000
 H                 -2.56591575    1.56156618    2.08968300
 H                 -2.03456775   -0.69047282   -1.04099700
 H                 -2.56936375   -0.83883882   -2.50536100
 H                  0.38963725    2.11130918    0.41416400
 H                 -0.57843075    4.09231918    0.03743100
 H                 -0.11899075    0.66618518   -2.54995500
 H                 -0.39986375    1.92647518   -3.43345500
 H                  1.80935225   -1.53215382    1.11825600
 H                  1.83480925   -0.49812282   -1.81750700
 Si                 3.84122155    0.53601099   -0.30290311
 O                  5.25238555    0.01090099    0.30435689
 O                  3.48617055    2.06228199    0.29422989
 O                  4.11276955    0.80875899   -1.96305411
 O                  2.56713255   -0.42273701   -0.08905611
 Ca                 7.14417755   -0.43194501   -1.10823211
 O                  7.55010255    0.85853999    1.03905689
 O                  6.41716055   -2.26437101    0.46494089
 O                  5.79745055   -1.06283001   -2.75423211
 O                  6.62014355    1.80922699   -2.01801011
 H                  5.71737655   -1.56889001    0.58810189
 H                  5.97967155   -3.04616501    0.12370789
 H                  6.56102055    0.77212599    1.01923689
 H                  7.75820355    1.79035499    1.11925289
 H                  4.57738555    0.03126099   -2.37809311
 H                  5.59546855   -1.84638901   -3.26119111
 H                  5.64350455    1.69008999   -2.06859211
 H                  6.76923255    2.61742399   -1.52379111
 H                  2.52084255    2.06827199    0.45529689

Title Card Required

-1 1
 Si                 0.05043600   -0.12706100   -0.01938400
 O                 -1.59696200   -0.00244500   -0.05618500
 O                  0.52083329   -0.44978155   -1.63627263
 O                  0.49284300    1.41104000    0.50674900
 O                  0.47358757   -1.38426116    1.01810033
 Ca                -2.85766900    1.75084900   -0.94983800
 O                 -3.48767000   -0.69074500   -1.62785200
 O                 -3.47707900    0.90200100    1.40309400
 O                 -1.47206800    3.14446100    0.06329300
 O                 -1.45375200    1.25156400   -2.88404300
 H                 -2.65036700    0.41876800    1.10769600
 H                 -3.19494800    1.53051700    2.07029900
 H                 -2.66360000   -0.72152200   -1.06038100
 H                 -3.19839600   -0.86988800   -2.52474500
 H                 -0.23939500    2.08026000    0.39478000
 H                 -1.20746300    4.06127000    0.01804700
 H                 -0.74802300    0.63513600   -2.56933900
 H                 -1.02889600    1.89542600   -3.45283900
 H                  1.43349089   -1.44847627    0.94532270
 H                  1.48063033   -0.54288381   -1.62608041
 Si                 3.60137611    0.43759965   -0.34064815
 O                  5.01254011   -0.08751035    0.26661185
 O                  3.24632511    1.96387065    0.25648485
 O                  3.87292411    0.71034765   -2.00079915
 O                  2.32728711   -0.52114835   -0.12680115
 Ca                 6.90433211   -0.53035635   -1.14597715
 O                  7.31025711    0.76012865    1.00131185
 O                  6.17731511   -2.36278235    0.42719585
 O                  5.55760511   -1.16124135   -2.79197715
 O                  6.38029811    1.71081565   -2.05575515
 H                  5.47753111   -1.66730135    0.55035685
 H                  5.73982611   -3.14457635    0.08596285
 H                  6.32117511    0.67371465    0.98149185
 H                  7.51835811    1.69194365    1.08150785
 H                  4.33754011   -0.06715035   -2.41583815
 H                  5.35562311   -1.94480035   -3.29893615
 H                  5.40365911    1.59167865   -2.10633715
 H                  6.52938711    2.51901265   -1.56153615
 H                  2.28099711    1.96986065    0.41755185

c2sdimertsnw

-1 1
 Si                 0.05043600   -0.12706100   -0.01938400
 O                 -1.59696200   -0.00244500   -0.05618500
 O                  0.25847700   -0.41538600   -1.69668500
 O                  0.49284300    1.41104000    0.50674900
 O                  0.23080400   -1.39376000    1.07557000
 Ca                -2.85766900    1.75084900   -0.94983800
 O                 -3.48920759   -0.69670399   -1.62950677
 O                 -3.47707900    0.90200100    1.40309400
 O                 -1.47206800    3.14446100    0.06329300
 O                 -1.45375200    1.25156400   -2.88404300
 H                 -2.65036700    0.41876800    1.10769600
 H                 -3.27781080    1.26879066    2.26654655
 H                 -2.66513759   -0.72748099   -1.06203577
 H                 -3.26366704   -1.14265136   -2.44831756
 H                 -0.23939500    2.08026000    0.39478000
 H                 -1.20746300    4.06127000    0.01804700
 H                 -0.74802300    0.63513600   -2.56933900
 H                 -1.02889600    1.89542600   -3.45283900
 H                  1.18032000   -1.56320300    1.09887200
 H                  1.20577700   -0.52917200   -1.83689100
 Si                 3.47485200    0.45949900   -0.33467900
 O                  4.88601600   -0.06561100    0.27258100
 O                  3.11980100    1.98577000    0.26245400
 O                  3.74640000    0.73224700   -1.99483000
 O                  2.20076300   -0.49924900   -0.12083200
 Ca                 6.77780800   -0.50845700   -1.14000800
 O                  7.18373300    0.78202800    1.00728100
 O                  6.05079100   -2.34088300    0.43316500
 O                  5.43108100   -1.13934200   -2.78600800
 O                  6.25377400    1.73271500   -2.04978600
 H                  5.35100700   -1.64540200    0.55632600
 H                  5.61330200   -3.12267700    0.09193200
 H                  6.19465100    0.69561400    0.98746100
 H                  7.39183400    1.71384300    1.08747700
 H                  4.21101600   -0.04525100   -2.40986900
 H                  5.22909900   -1.92290100   -3.29296700
 H                  5.27713500    1.61357800   -2.10036800
 H                  6.40286300    2.54091200   -1.55556700
 H                  2.15447300    1.99176000    0.42352100

