%nprocshared=24
%mem=2000MW
%chk=dimersiohts.chk
# opt=(calcfc,ts,maxcycle=1600) freq wb97xd/6-311++g(d,p)
scrf=(cpcm,solvent=water) nosymm scf=maxcycle=800

dimersiohts

-1 1
 Si                -4.62093832   -0.21660649    0.00000000
 O                 -6.23042932   -0.26840949   -0.29755900
 O                 -4.48589532    0.46588751   -1.87819400
 O                 -4.05001232    1.26566451    0.59932600
 O                 -4.76390032   -1.09683949    1.51761900
 Ca                -7.47437332    1.61269351   -0.83605100
 O                 -7.20725432   -1.54881949   -2.46500600
 O                 -8.22505432    0.19557551    1.17754800
 O                 -5.99372732    3.02426651   -0.00933500
 O                 -6.51522832    1.16008851   -2.94670900
 H                 -7.36704332   -0.20605749    0.84319800
 H                 -8.06852632    0.48424451    2.07793400
 H                 -6.82027532   -1.22999449   -1.61574600
 H                 -7.09117132   -0.75714249   -3.00916100
 H                 -4.66331432    2.00654151    0.36003500
 H                 -5.91094032    3.94876951    0.21548900
 H                 -5.48837432    0.82785451   -2.51745700
 H                 -6.38435532    1.78388751   -3.66087200
 H                 -3.90664832   -1.42187549    1.79364600
 H                 -3.68520132    0.27092651   -2.37812700
 Si                -1.74046532   -0.65910449   -0.91032600
 O                 -0.58997432   -1.73307149   -0.60705800
 O                 -1.43609932    0.82510951   -0.22084800
 O                 -1.80167532   -0.38367949   -2.57169400
 O                 -3.23067132   -1.13414649   -0.40406100
 Ca                 0.57093268   -2.86122049   -2.41109500
 O                  1.96277568   -2.02847649   -0.46772000
 O                 -0.42164832   -4.30798749   -0.63042000
 O                 -1.27590932   -2.66654249   -3.64125500
 O                  0.86337568   -0.55447549   -3.25858100
 H                 -0.75627332   -3.42371149   -0.34483300
 H                 -1.18647632   -4.86685549   -0.77818300
 H                  1.08176268   -1.65520149   -0.22645000
 H                  2.59293868   -1.30653649   -0.46773000
 H                 -1.76484932   -1.26250549   -3.07241200
 H                 -1.93821932   -3.25998649   -3.99000000
 H                 -0.03803032   -0.20590749   -3.10396900
 H                  1.46941868    0.08327851   -2.87640500
 H                 -2.26312632    1.22507051    0.11152200

