%nprocshared=16
%mem=2000MW
%chk=c2sdimerirc.chk
# irc=(calcfc,maxpoints=6,recalc=3,maxcycle=50) wb97xd/6-311++g(d,p)
scrf=(cpcm,solvent=water) nosymm

c2sdimerirc

-1 1
 Si                -1.28508125    0.64254061    0.00000000
 O                 -2.93305525    0.76607861   -0.04211800
 O                 -1.07682725    0.35672861   -1.67840600
 O                 -0.84742825    2.18321961    0.52443600
 O                 -1.11404025   -0.62424839    1.09708900
 Ca                -4.20163125    2.51094561   -0.93160400
 O                 -4.82775425    0.06344761   -1.60749600
 O                 -4.84428925    1.62711661    1.39612500
 O                 -2.79750625    3.92045361    0.02404200
 O                 -2.81469825    1.99089661   -2.87746800
 H                 -4.00301025    1.15955261    1.11690100
 H                 -4.61212525    2.19655661    2.13152100
 H                 -4.00208925    0.03806161   -1.04273900
 H                 -4.53665625   -0.10107939   -2.50668700
 H                 -1.57502825    2.85337261    0.39345900
 H                 -2.54136025    4.84031061    0.00363600
 H                 -2.10205625    1.38641661   -2.55522600
 H                 -2.39644625    2.63212961   -3.45409400
 H                 -0.16492225   -0.79431739    1.12819000
 H                 -0.13204225    0.24912261   -1.83407800
 Si                 2.13053575    1.23253461   -0.31676100
 O                  3.55006675    0.71672661    0.27837200
 O                  1.77776575    2.76213561    0.27333600
 O                  2.38136975    1.49410161   -1.98207200
 O                  0.86217375    0.27160461   -0.08102700
 Ca                 5.43193875    0.28564161   -1.15015300
 O                  5.84616075    1.58894861    0.99025900
 O                  4.73329375   -1.54974139    0.43653900
 O                  4.07569775   -0.36559639   -2.77943200
 O                  4.88195275    2.51428861   -2.06612600
 H                  4.02974675   -0.85870139    0.56271600
 H                  4.29879775   -2.33429239    0.09778100
 H                  4.85789475    1.49246661    0.97904800
 H                  6.04519975    2.52335361    1.06313900
 H                  2.84908375    0.71830761   -2.39689200
 H                  3.87750475   -1.15091139   -3.28512500
 H                  3.90591975    2.38833861   -2.10890300
 H                  5.02902875    3.32740861   -1.57939400
 H                  0.81299075    2.76795261    0.43765500

