%nprocshared=16
%mem=2000MW
%chk=dimerirc.chk
# irc=(calcfc,maxpoints=6,recalc=3,maxcycle=50) wb97xd/6-311++g(d,p)
scrf=(cpcm,solvent=water) nosymm

dimerirc

-1 1
 Si                 0.21240900   -0.55883100   -0.05250900
 O                  0.58759100    0.88422400   -0.77014700
 O                  0.11330500   -1.70863200   -1.30592600
 O                  1.50822000   -0.94772400    0.89646200
 O                 -1.20025600   -0.56774600    0.72498400
 Ca                 2.63068700    1.97604600   -0.28177600
 O                  2.03375600    1.63678400   -2.70621500
 O                  0.52571300    3.31849800   -0.09923900
 O                  2.26489700    1.20083300    1.97404000
 O                  3.59531500   -0.22914300   -0.28199100
 H                  0.20583400    2.38882200   -0.29943500
 H                  0.13158200    3.58976300    0.73115500
 H                  1.31055800    1.16208300   -2.19894600
 H                  2.46302700    0.99163500   -3.27006400
 H                  1.88753000    0.27881900    1.68893200
 H                  1.63018300    1.60280100    2.56860000
 H                  2.76989300   -0.68478600    0.16609700
 H                  3.79760600   -0.71254000   -1.08397700
 H                 -0.73397800   -2.16865400   -1.19680400
 Si                -3.27656000   -1.63609800    0.53962000
 O                 -4.67047500   -2.51315400    0.65389200
 O                 -2.37802200   -2.60707100   -0.52092500
 O                 -3.76150800   -0.18259800   -0.10232900
 O                 -2.83569800   -1.63090000    2.17713400
 Ca                -6.66934200   -1.72935800    1.61254000
 O                 -6.83641800   -2.95797600   -0.62176300
 O                 -5.77988400   -4.07271600    2.35710200
 O                 -5.14222000   -1.28505100    3.46269300
 O                 -6.34621600    0.16795800    0.52598000
 H                 -5.10533800   -3.66881800    1.74252700
 H                 -5.40647700   -4.00291400    3.23810300
 H                 -5.86178400   -2.85868200   -0.43095300
 H                 -7.02433500   -2.41262400   -1.38758700
 H                 -5.15905700   -0.51889000    4.03823300
 H                 -4.22051500   -1.36352700    3.11292400
 H                 -4.72869200   -0.02248800    0.06328700
 H                 -6.66170600    1.06948600    0.54299200
 H                 -2.93674600   -3.33288300   -0.80685500
 H                 -1.98852500   -1.13886200    2.14121600

