# opt=maxcycle=1600 freq pbepbe/6-311++g(d,p)/auto nosymm scf=maxcycle=800

alphacristobalite_rlxdftd

0 1
 Si                 1.39038317    1.20291134   23.80028787
 O                  0.72328346    0.25073922   24.96097378
 Si                 1.41223072    3.55355571   25.76466308
 Si                 4.04833907    3.35018142   27.20498207
 Si                 4.37810565    0.91925139   29.01502558
 O                  2.44126386    3.16770786   26.97103300
 O                  4.34060908    4.54579520   28.27750414
 O                  3.22810389    1.51565264   30.00509359
 O                  4.66791325    1.96609090   27.79684247
 O                  0.65111295    1.80366685   29.36264255
 O                  1.76254847    2.67660866   24.42480903
 O                  4.76162609    3.68659118   25.77562422
 Si                 6.37228879    1.89915774   23.49372018
 O                  6.26303417    1.03142250   24.88342184
 Si                 6.20285926    4.27871997   25.27016403
 Si                 8.64792659    3.69680387   27.23222290
 Si                 9.06713482    1.29273837   29.05031764
 O                  7.29214984    4.13949344   26.46290985
 O                  9.19411038    4.98787046   28.06952534
 O                  8.29618306    1.02183546   30.46237872
 O                  8.27431914    2.45330389   28.22211202
 O                  5.75134390    0.67013330   29.84149016
 O                  6.66942780    3.45414947   23.93512109
 O                  9.82189390    3.20405473   26.21317170
 Si                 1.15584899    6.01850931   24.10778978
 O                  1.60179963    5.14394833   25.42859180
 Si                 0.91177543    8.67604817   25.55644293
 Si                 3.64798345    8.57074494   27.03437945
 Si                 3.93079390    6.08349222   28.61926660
 O                  2.05467028    8.65284075   26.71286519
 O                  3.89037980    9.42149581   28.39983401
 O                  2.36873843    6.20532412   29.06952786
 O                  4.10900798    7.02341915   27.29264825
 O                 -0.08246401    6.65828774   29.98210080
 O                  1.33380672    7.62906243   24.36455323
 O                  4.50738755    9.16536719   25.78011389
 Si                 6.07005133    6.94427315   23.67885289
 O                  6.00633907    5.84978296   24.89486990
 Si                 6.07529881    9.44942342   25.39831990
 Si                 8.37588559    8.71149981   27.34106009
 Si                 8.60416056    6.15864441   29.03902696
 O                  6.99695694    9.32839050   26.73476081
 O                  9.13372411    9.84292510   28.22532958
 O                  7.39738980    5.54388797   29.95096994
 O                  7.95696028    7.41078602   28.22207148
 O                  4.89900060    6.60796331   29.81198484
 O                  6.57704112    8.38700310   24.26206742
 O                  9.40902991    8.20798210   26.17549921
 Si                 1.69707907    1.29432876   30.51265983
 O                  1.36041749   -0.27655857   30.80219430
 Si                 1.16939330    3.71053263   32.24805733
 Si                 3.48441084    3.76360021   34.22527587
 Si                 3.70668107    1.28045945   36.01530248
 O                  2.11604955    4.23691815   33.46571054
 O                  4.14982209    5.05705279   34.95185071
 O                  2.60599608    0.66667801   37.02996817
 O                  3.04675931    2.58575872   35.26251877
 O                  0.02068948    1.56795621   36.62640498
 O                  1.52474041    2.16095949   31.88622765
 O                  4.59537464    3.16334367   33.18615205
 Si                 6.76834489    1.16417369   31.01234691
 O                  6.60262286    0.21803020   32.32762121
 Si                 5.98729198    3.74675246   32.56602375
 Si                 8.64188729    3.43490201   34.03594966
 Si                 8.85909684    0.85234523   35.67058742
 O                  7.10923726    3.91617988   33.74856836
 O                  9.25550660    4.21002616   35.34422831
 O                  7.47672200    0.45311830   36.40792755
 O                  8.67085216    1.83581177   34.36058820
 O                  5.11272224    1.70554844   36.76854112
 O                  6.49754734    2.71863730   31.41172214
 O                  9.52517550    3.77732233   32.70716588
 Si                 1.41817508    6.16232339   30.38685741
 O                  1.40346320    4.62533784   30.92518021
 Si                 1.40021117    8.61964187   32.07538368
 Si                 3.65128281    8.79760480   34.13594256
 Si                 3.93719597    6.37157663   35.90144747
 O                  2.39290720    9.24020037   33.20724630
 O                  4.14843629   10.09055733   34.99691796
 O                  3.14410907    6.00229889   37.26524980
 O                  3.15569952    7.57115067   35.09301605
 O                  0.46870193    5.68665851   37.07854365
 O                  1.96744701    7.17935465   31.54425067
 O                  4.89395180    8.27788360   33.22016466
 Si                 6.16488386    6.24696675   30.76559214
 O                  5.67830708    5.21233840   31.92473447
 Si                 6.39333126    8.60473902   32.68441332
 Si                 9.09375305    8.21198658   34.02762801
 Si                 9.29868392    5.79254135   35.83777303
 O                  7.46983255    8.27257717   33.85593451
 O                  9.54240053    9.33129450   35.13521774
 O                  8.00774756    6.20068757   36.72114834
 O                  9.50922252    6.70414831   34.47961670
 O                  5.47261669    6.86868834   36.25932097
 O                  6.69307962    7.65901189   31.38933755
 O                  9.81858262    8.55143338   32.60309170
 H                  6.67897146    1.03609964   36.48979821
 H                  7.08875128    6.28618253   36.37073694
 H                  5.01970634    2.30723001   37.54003021
 H                  5.57874865    7.79020932   36.55338556
 H                  1.66358783    0.93598702   36.88852421
 H                  2.16798263    5.86635450   37.15750833
 H                  0.06111450    2.53827395   36.51198610
 H                  0.17215877    6.13180396   37.89134872
 O                  0.44606379    1.33854239   22.49652926
 O                  2.85000612    0.57035180   23.33597943
 H                  2.87237295   -0.37556770   23.10372107
 O                  2.27517453    5.73742315   22.90738545
 H                  2.31077011    4.80764491   22.62000813
 O                 -0.34544543    5.53432166   23.75107253
 O                  5.09202933    1.75005311   22.51836028
 O                  7.70183494    1.45753033   22.60150098
 H                  7.50403888    0.72812561   21.98919271
 O                  7.28912699    6.54554786   22.61662564
 H                  7.07269527    5.79635009   22.03561340
 O                  4.65283229    7.14563186   22.91571504
 H                 -0.52270807    1.50006308   22.62582173
 H                  4.24500436    1.36203211   22.86467058
 H                  3.87785706    6.53797286   23.00177853
 H                 -1.03233487    6.07229214   23.29146380
 Si                11.33710433    1.19753788   23.80349761
 O                 10.65699375    0.23501750   24.94780740
 Si                11.35504432    3.54844256   25.77770981
 Si                13.99203038    3.35699515   27.21624784
 Si                14.31794204    0.91010398   29.00902037
 O                 12.38515732    3.16631822   26.98493540
 O                 14.28091729    4.55805794   28.28395923
 O                 13.17396650    1.50489024   30.00671214
 O                 14.61998746    1.97603530   27.80971338
 O                 10.59446938    1.78290463   29.36512683
 O                 11.70600925    2.66529664   24.44272974
 O                 14.69973277    3.69652527   25.78446092
 Si                16.28360991    1.92636462   23.46825844
 O                 16.15219312    1.03790704   24.84111193
 Si                16.13728201    4.29082477   25.27202207
 Si                18.59141168    3.71075579   27.22315968
 Si                19.00295857    1.30736834   29.04108111
 O                 17.23168211    4.15048803   26.45979278
 O                 19.15770200    5.00869973   28.03816896
 O                 18.23282740    1.00689825   30.44836301
 O                 18.21306541    2.48119496   28.22933870
 O                 15.68818742    0.62325060   29.83142629
 O                 16.59878980    3.47051581   23.93285984
 O                 19.75571222    3.20226330   26.20071075
 Si                11.09762680    6.01778912   24.12210721
 O                 11.54626571    5.13794806   25.43791036
 Si                10.84393182    8.68114341   25.56877069
 Si                13.58445689    8.58838553   27.03946487
 Si                13.86864036    6.09622468   28.62466609
 O                 11.99163018    8.69167192   26.72097088
 O                 13.84505530    9.43904641   28.40164507
 O                 12.31142127    6.20771658   29.08884343
 O                 14.02839244    7.03571523   27.29514478
 O                  9.84620228    6.69526659   29.94590818
 O                 11.27705492    7.62673298   24.38697450
 O                 14.44605868    9.17141881   25.78099276
 Si                16.00407005    6.95335797   23.67946711
 O                 15.94061691    5.86264058   24.89919306
 Si                16.01487496    9.45242660   25.40358403
 Si                18.32928406    8.72359697   27.33205382
 Si                18.56644758    6.15685708   29.03377905
 O                 16.93218378    9.31584929   26.74192632
 O                 19.09452440    9.87879534   28.17885510
 O                 17.33860930    5.51792235   29.90146079
 O                 17.94030830    7.43717818   28.24552982
 O                 14.85674642    6.63095403   29.79940847
 O                 16.51322526    8.39701269   24.25903961
 O                 19.34424566    8.21361782   26.15373078
 Si                11.64326599    1.28919682   30.51971989
 O                 11.31215558   -0.27862428   30.83348489
 Si                11.08529939    3.71518868   32.23752534
 Si                13.41885085    3.78473928   34.17700136
 Si                13.62124026    1.35622434   36.03892320
 O                 12.06002849    4.27662052   33.41942058
 O                 14.13060749    5.06544175   34.88563244
 O                 12.58267009    0.84739925   37.16988814
 O                 12.96004070    2.62120175   35.22721555
 O                  9.96680880    1.56803412   36.68527693
 O                 11.47677419    2.17217233   31.88217586
 O                 14.51780685    3.14603734   33.14617612
 Si                16.70345501    1.13596281   30.99518577
 O                 16.54464434    0.21162167   32.32744767
 Si                15.91020409    3.72172930   32.52119965
 Si                18.57255734    3.41055373   33.98115380
 Si                18.80494073    0.84181176   35.60551585
 O                 17.03681547    3.87864234   33.70370816
 O                 19.14778104    4.15969677   35.32705114
 O                 17.39382915    0.46120861   36.30186045
 O                 18.64182532    1.80820337   34.27498191
 O                 15.06150640    1.82780237   36.72474361
 O                 16.41670832    2.69445844   31.36753475
 O                 19.47261239    3.81570603   32.68395057
 Si                11.32711827    6.16568951   30.38100197
 O                 11.26696154    4.62433141   30.90155185
 Si                11.34337898    8.64266446   32.03262605
 Si                13.62925974    8.78324305   34.06064236
 Si                13.92307820    6.37992412   35.84398879
 O                 12.35289375    9.23560164   33.16481181
 O                 14.19745649   10.08432985   34.86394258
 O                 13.18716467    5.95934864   37.22154980
 O                 13.13443324    7.58448834   35.05571396
 O                 10.56824253    5.94604730   36.85196647
 O                 11.86068894    7.16404465   31.55953594
 O                 14.85081393    8.22156134   33.13420172
 Si                16.12398396    6.22848777   30.73538723
 O                 15.61568997    5.18828751   31.88057913
 Si                16.37575741    8.54944994   32.67177384
 Si                19.03129525    8.17628784   34.11237302
 Si                19.12019479    5.68827388   35.94711644
 O                 17.41149066    8.19500031   33.88384373
 O                 19.47670825    9.36024271   35.14624842
 O                 17.81169272    6.00632682   36.82787506
 O                 19.45319171    6.71627549   34.71658532
 O                 15.45959527    6.91705249   36.16882236
 O                 16.70901082    7.60860932   31.38161740
 O                 19.77422159    8.40804304   32.67915005
 H                 16.63681729    1.08617545   36.40155841
 H                 16.92091353    6.26639821   36.46418528
 H                 14.99643229    2.58720045   37.32753667
 H                 15.57526630    7.87325619   36.31298552
 H                 11.62101100    1.03909034   37.01722807
 H                 12.21029627    5.78234675   37.10642475
 H                 10.02365780    2.53940349   36.58304715
 H                 10.42437299    6.74422533   37.48387649
 O                 10.40326614    1.34651590   22.49384460
 O                 12.80083971    0.56981323   23.34468501
 H                 12.82720791   -0.37439681   23.10621705
 O                 12.21337580    5.74341478   22.91650504
 H                 12.24902411    4.81557869   22.62302738
 O                  9.59578787    5.53480153   23.76563669
 O                 15.00024996    1.81051170   22.49146146
 O                 17.61344712    1.48430928   22.57676647
 H                 17.41303833    0.76935018   21.94862959
 O                 17.22143544    6.55150368   22.61641824
 H                 17.00132935    5.80433663   22.03417295
 O                 14.58651112    7.15270855   22.91663124
 H                  9.43271443    1.49922869   22.62322151
 H                 14.16538673    1.39492312   22.83580097
 H                 13.81199632    6.54465183   23.00546091
 H                  8.91158610    6.07099730   23.30021832
 Si                 1.41037984   11.15180100   23.80273908
 O                  0.75907490   10.18368994   24.95757558
 Si                 1.41082971   13.51678028   25.76507585
 Si                 4.05082409   13.31537844   27.20577288
 Si                 4.37220064   10.85647538   28.98771566
 O                  2.44168875   13.15045424   26.97509255
 O                  4.35783493   14.49739219   28.29103235
 O                  3.23978670   11.44022735   30.00713026
 O                  4.64747845   11.91289864   27.77530019
 O                  0.66052921   11.74049036   29.37012262
 O                  1.76225106   12.62726076   24.43429986
 O                  4.77325340   13.66151408   25.78297609
 Si                 6.36118872   11.87695695   23.47424225
 O                  6.21218068   10.96347475   24.82731756
 Si                 6.22247419   14.24340472   25.28698066
 Si                 8.65608047   13.64236300   27.24737936
 Si                 9.05382510   11.23768799   29.06087277
 O                  7.30346309   14.12049704   26.49117245
 O                  9.23127444   14.90868615   28.10559301
 O                  8.28385957   10.98850173   30.47926425
 O                  8.26278192   12.38836931   28.21615042
 O                  5.76776607   10.60221557   29.77507856
 O                  6.70162163   13.40679041   23.96540129
 O                  9.82040843   13.14738358   26.21785502
 Si                 1.15830035   15.98006615   24.09921326
 O                  1.60055859   15.10417461   25.41855168
 Si                 0.90907839   18.62411261   25.56565034
 Si                 3.64896065   18.52527900   27.04571445
 Si                 3.95169128   16.03831407   28.62889115
 O                  2.05747992   18.62908401   26.71813689
 O                  3.90585166   19.35709873   28.42147992
 O                  2.39686721   16.14207232   29.10446254
 O                  4.09299992   16.97036639   27.29193360
 O                 -0.06469257   16.64434416   29.96625568
 O                  1.34580874   17.58766327   24.36874468
 O                  4.51344604   19.12157070   25.79495442
 Si                 6.07945286   16.90009670   23.67691846
 O                  6.03458679   15.81244809   24.89866838
 Si                 6.08776476   19.38400731   25.42527630
 Si                 8.39649855   18.62611635   27.35185549
 Si                 8.64678357   16.07361463   29.08544705
 O                  6.99021779   19.20353967   26.76819512
 O                  9.15718710   19.78819985   28.19163639
 O                  7.41699820   15.45900331   29.96821117
 O                  8.02499134   17.34206029   28.27526876
 O                  4.94928336   16.58724437   29.78942443
 O                  6.57510763   18.34714328   24.25931679
 O                  9.40791498   18.12368811   26.16661830
 Si                 1.70749391   11.23356179   30.52141927
 O                  1.36032219    9.66899486   30.82826554
 Si                 1.14874056   13.65360335   32.25431623
 Si                 3.46264806   13.72761981   34.21634973
 Si                 3.64703975   11.25478945   36.03382038
 O                  2.09930962   14.21015428   33.45791651
 O                  4.14577643   15.01121096   34.94827941
 O                  2.58241797   10.72883474   37.13255232
 O                  3.01152658   12.55712593   35.25949700
 O                 -0.04306642   11.47895088   36.64004658
 O                  1.54698396   12.11571770   31.88740183
 O                  4.56605443   13.11023092   33.18031926
 Si                 6.73641056   11.11323706   30.97766516
 O                  6.51954314   10.18499752   32.29505516
 Si                 5.94600196   13.68401454   32.52624688
 Si                 8.61762061   13.33546928   33.97584471
 Si                 8.83647835   10.73638932   35.58800540
 O                  7.09315192   13.83187285   33.68854967
 O                  9.19675387   14.09645463   35.31364123
 O                  7.43822389   10.35048834   36.30426350
 O                  8.65253149   11.73637243   34.28291980
 O                  5.08096243   11.68318299   36.75917399
 O                  6.42574229   12.66774700   31.35196833
 O                  9.53301282   13.71074673   32.67887811
 Si                 1.41732918   16.11441706   30.39863695
 O                  1.34375327   14.57770123   30.93190942
 Si                 1.42555760   18.57622189   32.06987015
 Si                 3.69726004   18.75007368   34.09359442
 Si                 3.92419242   16.34739383   35.87004851
 O                  2.45691866   19.21897348   33.15399515
 O                  4.24050093   20.02615803   34.94593211
 O                  3.15151159   15.98946340   37.24568649
 O                  3.14973230   17.53465200   35.04206832
 O                  0.46929175   15.63168959   37.08432709
 O                  1.97132878   17.11900445   31.56367184
 O                  4.93935030   18.18549306   33.20068474
 Si                 6.18758762   16.18732784   30.76497084
 O                  5.63979495   15.15701842   31.90312976
 Si                 6.45471429   18.51449199   32.71052536
 Si                 9.11886761   18.14427391   34.16019343
 Si                 9.16083182   15.61936897   35.94424358
 O                  7.50258717   18.16920398   33.91359336
 O                  9.55417332   19.30943769   35.21996700
 O                  7.83939874   15.93988333   36.80656629
 O                  9.52597589   16.66845912   34.74117882
 O                  5.46115617   16.87225357   36.20878033
 O                  6.76599116   17.56672165   31.41881251
 O                  9.87830848   18.39135535   32.73865950
 H                  6.67509167   10.96644181   36.40350268
 H                  6.95354502   16.20577661   36.44004488
 H                  5.01046731   12.38697330   37.42477957
 H                  5.55615337   17.80902591   36.45705577
 H                  1.62470009   10.92482567   36.96845650
 H                  2.17806959   15.82624356   37.15577989
 H                 -0.01727556   12.45143767   36.54263063
 H                  0.17310090   16.06301277   37.90437854
 O                  0.46299379   11.28202579   22.50016580
 O                  2.87827960   10.54342242   23.33137974
 H                  2.91542121    9.59774041   23.10041902
 O                  2.27600124   15.69976731   22.89718415
 H                  2.30427902   14.77282623   22.60022594
 O                 -0.34300671   15.49979468   23.73950857
 O                  5.07496596   11.80183419   22.49620794
 O                  7.68608647   11.43078626   22.57713059
 H                  7.47733281   10.73256463   21.93329226
 O                  7.29698165   16.51332458   22.60787627
 H                  7.06504601   15.79825826   21.99135948
 O                  4.66089098   17.08472829   22.91347299
 H                 -0.50592114   11.44080872   22.63110909
 H                  4.24011873   11.37940133   22.83187231
 H                  3.88480743   16.47932047   23.00411474
 H                 -1.02848158   16.03329280   23.27268808
 Si                11.33769548   11.14294062   23.80219029
 O                 10.66838649   10.17883974   24.95055956
 Si                11.35076356   13.49629427   25.77490380
 Si                13.99629615   13.31155016   27.20336833
 Si                14.32735315   10.87615820   28.98484821
 O                 12.38874200   13.12085144   26.97730647
 O                 14.28504325   14.49652242   28.29030633
 O                 13.17753772   11.49934164   29.96031096
 O                 14.63187100   11.92221755   27.76865583
 O                 10.57968253   11.74100639   29.36414517
 O                 11.69820518   12.61478611   24.43766297
 O                 14.69981110   13.67129728   25.77476094
 Si                16.29691037   11.86726205   23.47595754
 O                 16.16018862   10.96985178   24.84160168
 Si                16.15031816   14.24462208   25.27461151
 Si                18.59130278   13.66404714   27.23657382
 Si                19.00885293   11.25228361   29.04845178
 O                 17.22868986   14.10691062   26.47836564
 O                 19.15032520   14.95352591   28.06964553
 O                 18.23566827   10.97169004   30.45814815
 O                 18.22058756   12.42241399   28.22962064
 O                 15.69679840   10.60548024   29.81143527
 O                 16.61832122   13.40752882   23.94905026
 O                 19.75487994   13.16956839   26.20618380
 Si                11.09299952   15.95594154   24.10922036
 O                 11.53534102   15.08590032   25.43337710
 Si                10.83869218   18.61054428   25.55826799
 Si                13.57970718   18.51731077   27.03234640
 Si                13.88080514   16.03752036   28.62858965
 O                 11.98811991   18.61853308   26.70863071
 O                 13.83143095   19.36075533   28.40007536
 O                 12.33108717   16.15309316   29.12061306
 O                 14.02128411   16.96369079   27.28797332
 O                  9.87487183   16.57971752   30.02974117
 O                 11.27296615   17.56594894   24.36828894
 O                 14.44601078   19.10466207   25.77951447
 Si                16.01266376   16.90027618   23.66476991
 O                 15.97396522   15.81585924   24.89004722
 Si                16.01199259   19.39267502   25.39539098
 Si                18.32589650   18.65339258   27.32940966
 Si                18.56763790   16.11501712   29.05476950
 O                 16.93537311   19.24811506   26.72786249
 O                 19.09385971   19.81326725   28.16647760
 O                 17.36322272   15.48663742   29.96272351
 O                 17.92097634   17.37713903   28.25239128
 O                 14.88507179   16.58896073   29.78183334
 O                 16.50885587   18.35081258   24.23792379
 O                 19.35228173   18.12939775   26.16614249
 Si                11.65843105   11.23879583   30.48801163
 O                 11.37850644    9.65474844   30.75473972
 Si                11.11377384   13.61779116   32.27281412
 Si                13.42444833   13.68460367   34.26024961
 Si                13.63515825   11.13258903   35.99885228
 O                 12.02464650   14.11262711   33.53200976
 O                 14.07961793   15.00657763   34.95076156
 O                 12.46039583   10.45285953   36.87934488
 O                 13.05376174   12.51913512   35.33364510
 O                  9.94049732   11.45936953   36.60365536
 O                 11.48573290   12.07959129   31.87877029
 O                 14.51228670   13.09810977   33.18999539
 Si                16.70149360   11.08898950   30.99562715
 O                 16.53283941   10.13022629   32.29953275
 Si                15.89079860   13.67694054   32.54033417
 Si                18.53720575   13.35394511   34.00913745
 Si                18.74368749   10.74899339   35.61771200
 O                 17.02338910   13.87754056   33.70960815
 O                 19.12128268   14.10933180   35.34801961
 O                 17.36562473   10.28846143   36.32396956
 O                 18.53549919   11.75549759   34.32290520
 O                 15.00125923   11.44116407   36.86926340
 O                 16.40841722   12.63669241   31.40469771
 O                 19.45817116   13.71209358   32.71281056
 Si                11.38010826   16.09924907   30.43711617
 O                 11.38236725   14.56344029   30.97835184
 Si                11.36889548   18.57659799   32.10330813
 Si                13.62230293   18.75638746   34.15428732
 Si                13.84200393   16.31606494   35.90076025
 O                 12.39288259   19.21813996   33.19795134
 O                 14.12220568   20.02978178   35.04100763
 O                 13.03024149   15.94250926   37.25123379
 O                 13.08520209   17.52636317   35.08827317
 O                 10.36613558   15.59500797   37.09710608
 O                 11.91900519   17.12056337   31.59610997
 O                 14.88229230   18.21695788   33.27394319
 Si                16.11666053   16.18311794   30.76184767
 O                 15.56834154   15.12702687   31.87417360
 Si                16.38602853   18.51415095   32.73387624
 Si                19.07130612   18.12827676   34.13634914
 Si                19.12912784   15.64627126   35.94644890
 O                 17.45213966   18.15389283   33.91456302
 O                 19.50582173   19.29290523   35.19726528
 O                 17.82476320   16.02348248   36.81290964
 O                 19.49464882   16.65490787   34.70847624
 O                 15.37041444   16.82541595   36.29607360
 O                 16.66538858   17.55962552   31.44252176
 O                 19.81161993   18.38885807   32.70853528
 H                 16.57146844   10.85825580   36.48934416
 H                 16.91867600   16.21567694   36.45473752
 H                 14.88943215   11.92240571   37.72036973
 H                 15.45637630   17.75869769   36.55899919
 H                 11.53679893   10.78543383   36.73225676
 H                 12.05347144   15.80256966   37.14175906
 H                  9.98363668   12.42978077   36.49349168
 H                 10.06144153   16.02717116   37.91355757
 O                 10.39822349   11.28289386   22.49514185
 O                 12.80416529   10.52476097   23.33939635
 H                 12.83824592    9.57856883   23.10984688
 O                 12.21476073   15.67400793   22.91126262
 H                 12.24960465   14.74465880   22.62240620
 O                  9.59273987   15.47214106   23.74885937
 O                 15.01403910   11.75948707   22.49686201
 O                 17.62690732   11.42625132   22.58378961
 H                 17.42456493   10.71818308   21.94856608
 O                 17.22823326   16.51074618   22.59501931
 H                 17.00551295   15.77645068   21.99784335
 O                 14.58926302   17.08189213   22.90936008
 H                  9.42892015   11.44163699   22.62307405
 H                 14.17650556   11.34791483   22.83913955
 H                 13.81720544   16.47168033   23.00354377
 H                  8.90832384   16.00784762   23.28283961
 C                 15.84960429   14.31444910   39.22099238
 C                 15.01078623   13.10362805   39.55360965
 C                 15.59320175   11.92096116   40.05166248
 C                 13.61699898   13.11503073   39.38600233
 C                 14.82329392   10.79658037   40.34326553
 H                 16.67289076   11.87413480   40.18495304
 C                 12.82801652   11.99754685   39.68618236
 H                 13.14613746   14.01368436   38.99040043
 C                 13.43347954   10.82227289   40.14731329
 H                 15.28359407    9.87583683   40.69287428
 H                 11.75372872   12.04427804   39.53378685
 O                 12.76304215    9.65267384   40.42786284
 C                 11.46644003    9.45375635   39.82412940
 H                 10.67688963    9.69169583   40.55037508
 H                 11.34374461   10.09744413   38.94762603
 C                 11.40018478    8.00557978   39.33293658
 C                 11.36830771    6.89080819   40.40809681
 O                 10.19940835    7.86714045   38.53879101
 H                 12.26184849    7.84447300   38.67240978
 H                 12.02565947    7.14559116   41.25250065
 H                 11.74710789    5.97064880   39.94932654
 C                  9.61900238    7.38664217   42.06080371
 N                  9.96708026    6.66012492   40.83164268
 H                  9.57161157    7.45924676   39.20935256
 H                 11.17084377    3.28069529   40.09384916
 C                  4.96757693    3.81663668   39.23493988