 # Version information for this restart file 
 # current date 2025-03-07 20:48:19.958
 # current working dir /scratch4/nmitra1/silica_cp2k/1000_70_cell222/epoxyadsorb_zslab/dftd3bjrelax_wtradded
 # Program compiled at                              Wed May 17 21:13:02 EDT 2023
 # Program compiled on                                                      c718
 # Program compiled for                            linux-centos8-cascadelake-gcc
 # Source code revision number                                       git:a8a26f8
 &GLOBAL
   EXTENDED_FFT_LENGTHS  T
   PRINT_LEVEL  MEDIUM
   PROJECT_NAME Silicazslab_epoxywtr
   RUN_TYPE  GEO_OPT
 &END GLOBAL
 &MOTION
   &GEO_OPT
     TYPE  MINIMIZATION
     OPTIMIZER  BFGS
     MAX_ITER  2000
     MAX_FORCE     1.9000000000000001E-05
     STEP_START_VAL  464
     &PRINT
       &PROGRAM_RUN_INFO  SILENT
         FILENAME ./geom_opt
       &END PROGRAM_RUN_INFO
     &END PRINT
   &END GEO_OPT
 &END MOTION
 &FORCE_EVAL
   METHOD  QS
   STRESS_TENSOR  ANALYTICAL
   &DFT
     BASIS_SET_FILE_NAME ../../../cp2k-data/BASIS_MOLOPT
     POTENTIAL_FILE_NAME ../../../cp2k-data/GTH_POTENTIALS
     MULTIPLICITY  1
     CHARGE  0
     SURFACE_DIPOLE_CORRECTION  T
     SURF_DIP_DIR  Z
     SURF_DIP_POS     5.8000000000000000E+01
     &SCF
       MAX_SCF  500
       EPS_SCF     1.0000000000000000E-08
       SCF_GUESS  ATOMIC
       &OT  T
         MINIMIZER  CG
       &END OT
       &OUTER_SCF  T
         EPS_SCF     1.0000000000000000E-08
         MAX_SCF  20
       &END OUTER_SCF
       &MIXING  T
         METHOD  BROYDEN_MIXING
         ALPHA     2.9999999999999999E-01
         NBUFFER  10
       &END MIXING
     &END SCF
     &QS
       EPS_DEFAULT     9.9999999999999998E-13
       EXTRAPOLATION  USE_PREV_P
       METHOD  GPW
     &END QS
     &MGRID
       CUTOFF     1.0000000000000000E+03
       REL_CUTOFF     7.0000000000000000E+01
     &END MGRID
     &XC
       DENSITY_CUTOFF     1.0000000000000000E-10
       GRADIENT_CUTOFF     1.0000000000000000E-10
       TAU_CUTOFF     1.0000000000000000E-10
       &XC_FUNCTIONAL  NO_SHORTCUT
         &PBE  T
         &END PBE
       &END XC_FUNCTIONAL
       &VDW_POTENTIAL
         POTENTIAL_TYPE  PAIR_POTENTIAL
         &PAIR_POTENTIAL
           R_CUTOFF     2.0000000000000004E+01
           TYPE  DFTD3(BJ)
           PARAMETER_FILE_NAME ../../../cp2k-data/dftd3.dat
           REFERENCE_FUNCTIONAL PBE
           CALCULATE_C9_TERM  T
         &END PAIR_POTENTIAL
       &END VDW_POTENTIAL
     &END XC
     &POISSON
       POISSON_SOLVER  PERIODIC
       PERIODIC  XYZ
     &END POISSON
   &END DFT
   &SUBSYS
     &CELL
       A     1.9875420540000000E+01    0.0000000000000000E+00    0.0000000000000000E+00
       B     0.0000000000000000E+00    1.9875420540000000E+01    0.0000000000000000E+00
       C     0.0000000000000000E+00    0.0000000000000000E+00    6.0000000000000007E+01
       MULTIPLE_UNIT_CELL  1 1 1
     &END CELL
     &COORD
Si    1.4884285582314576E+00    1.1242912104109810E+00    2.3892344277091844E+01
O    8.2613485714572732E-01    1.6785994290419309E-01    2.5053216461383130E+01
Si    1.5172621948326039E+00    3.5190549528600039E+00    2.5807656948774579E+01
Si    4.1166289715231068E+00    3.3500716346817407E+00    2.7333858311770030E+01
Si    4.3728532855829556E+00    8.8178098013180251E-01    2.9111904659796725E+01
O    2.5098476795500040E+00    3.2116210156532921E+00    2.7065728464781930E+01
O    4.4101983947559660E+00    4.5231925429697126E+00    2.8431881586304911E+01
O    3.2511465678238571E+00    1.5014277496373629E+00    3.0123315726969487E+01
O    4.7016835733516347E+00    1.9473332844483469E+00    2.7918994309737169E+01
O    7.0598427212286774E-01    1.7242417482842469E+00    2.9368704439434474E+01
O    1.9168161565324948E+00    2.5765811858627155E+00    2.4529078979973779E+01
O    4.8544773084548511E+00    3.6854198409010679E+00    2.5918275178353369E+01
Si    6.4431347476109613E+00    1.8268572114925488E+00    2.3640016286223670E+01
O    6.3247679964809338E+00    9.8041026546890242E-01    2.5046542789694847E+01
Si    6.2760265994712903E+00    4.2641291271684345E+00    2.5354035211533844E+01
Si    8.7434946862766267E+00    3.6913927435674392E+00    2.7280198172629458E+01
Si    9.1082567921498505E+00    1.2476014085296998E+00    2.9043771188626540E+01
O    7.4043325748607822E+00    4.1907236826961141E+00    2.6516238089680531E+01
O    9.3170171517420854E+00    4.9645564209934347E+00    2.8127133126511580E+01
O    8.3141277528018449E+00    9.3279924611005172E-01    3.0430902843826846E+01
O    8.3336931375386545E+00    2.4471430994080658E+00    2.8254795746931311E+01
O    5.7401715571325740E+00    5.5305051919173964E-01    2.9925068433739803E+01
O    6.7258997476941973E+00    3.3917191245117499E+00    2.4046347613229802E+01
O    9.9138411220599849E+00    3.1719969399631824E+00    2.6269748572808233E+01
Si    1.2082317755798584E+00    5.9541163204275813E+00    2.4087263335669359E+01
O    1.6932014489400506E+00    5.0954235075900405E+00    2.5403174528899065E+01
Si    9.4164990196858489E-01    8.5953459566598145E+00    2.5558320525662225E+01
Si    3.6484174390995596E+00    8.4962001853860940E+00    2.7084415119563715E+01
Si    4.0260301791890534E+00    6.0727505518091904E+00    2.8757248815540965E+01
O    2.0595613726827708E+00    8.4887271615582520E+00    2.6733663874138220E+01
O    3.8260746998161306E+00    9.4126384229920976E+00    2.8416974008279475E+01
O    2.4855625115470863E+00    6.2140248166017242E+00    2.9263529314956678E+01
O    4.1617532104930168E+00    6.9777688866499474E+00    2.7401551638886200E+01
O   -1.6711799205237944E-02    6.6536775695026167E+00    3.0013530664853263E+01
O    1.3450573949969826E+00    7.5697385796476953E+00    2.4341383392952519E+01
O    4.5077773765140554E+00    9.0830976151530152E+00    2.5825633551187050E+01
Si    6.1135865028377481E+00    6.9089753212260359E+00    2.3709026950286862E+01
O    6.0502303776816717E+00    5.8188675859417867E+00    2.4925846189241852E+01
Si    6.0741302437782974E+00    9.3933341562128945E+00    2.5457391471558669E+01
Si    8.3995571320461533E+00    8.6620756613314409E+00    2.7362363783612039E+01
Si    8.7130140388808055E+00    6.1326818576998123E+00    2.9092530964966596E+01
O    6.9898855038686252E+00    9.2523124180531653E+00    2.6797623535222506E+01
O    9.1762401718490629E+00    9.8072056894992503E+00    2.8215872424995482E+01
O    7.5255986506032881E+00    5.4992892691971793E+00    3.0017870156389055E+01
O    8.0340735490189203E+00    7.3668489581502836E+00    2.8274314127151101E+01
O    5.0524974178006090E+00    6.6292536984315413E+00    2.9887018184161942E+01
O    6.5898719540749884E+00    8.3605813511860383E+00    2.4298403722974882E+01
O    9.3829462034301123E+00    8.1654141012328587E+00    2.6151628470101166E+01
Si    1.7038535985038470E+00    1.2562802782349785E+00    3.0578038682274052E+01
O    1.4067393615891786E+00   -3.2006151742031169E-01    3.0880780101255123E+01
Si    1.1371273625484264E+00    3.6753346931954392E+00    3.2334446166886870E+01
Si    3.5116288745766515E+00    3.6924931304941739E+00    3.4253008695437153E+01
Si    3.7496802178651416E+00    1.2036997818983883E+00    3.6066125502691207E+01
O    2.1112056446714118E+00    4.1581954407587558E+00    3.3544168751321997E+01
O    4.1902030530551606E+00    4.9823277992944943E+00    3.4964446391643882E+01
O    2.6125385153019387E+00    5.7230977226784396E-01    3.7026882219829048E+01
O    3.1070106107766531E+00    2.4944996292971831E+00    3.5280095896893059E+01
O    1.6957775996924912E-02    1.5919211482223019E+00    3.6762520113337949E+01
O    1.4350836723248597E+00    2.1226101102955850E+00    3.1935439442038376E+01
O    4.5790264865052972E+00    3.1052142499030881E+00    3.3157385794144162E+01
Si    6.8090780002365978E+00    1.0751995070521447E+00    3.1038839469672141E+01
O    6.7271282658565887E+00    1.4665366533905672E-01    3.2373784334687656E+01
Si    6.0035893962207423E+00    3.6526211551651966E+00    3.2584900733979964E+01
Si    8.6289815264501417E+00    3.3349259274585079E+00    3.4105189070538387E+01
Si    8.8797861012014430E+00    7.8882828423639884E-01    3.5786986943080784E+01
O    7.0888257098466010E+00    3.7773319249627093E+00    3.3805715075077728E+01
O    9.2091985909850038E+00    4.1461048408081860E+00    3.5409476914639932E+01
O    7.4886161704857868E+00    3.7918536143031828E-01    3.6502991683199724E+01
O    8.7000343037251788E+00    1.7450663204803956E+00    3.4454486974713319E+01
O    5.1235912866892592E+00    1.6490688878621533E+00    3.6867730087614518E+01
O    6.5306925191782863E+00    2.6302372663804956E+00    3.1430996349621903E+01
O    9.5079538806285946E+00    3.6910857791697937E+00    3.2777047442159002E+01
Si    1.4503725808606438E+00    6.1385403409286221E+00    3.0511088600539761E+01
O    1.3796414446406651E+00    4.5910912331019622E+00    3.1010888567319281E+01
Si    1.4760778614323187E+00    8.6180122108070325E+00    3.2195990296665464E+01
Si    3.7625501323611230E+00    8.6770622676256028E+00    3.4224778351495061E+01
Si    3.9296392394451458E+00    6.2404550359107773E+00    3.5996476639845639E+01
O    2.5145821522627858E+00    9.1985708801691306E+00    3.3305532941475640E+01
O    4.3251241700090421E+00    9.9594222185040895E+00    3.5052982459286014E+01
O    3.0175394782106113E+00    5.7995199090746485E+00    3.7261144734425258E+01
O    3.2031650849932718E+00    7.4611933071053897E+00    3.5147687127681024E+01
O    3.5842318822115710E-01    5.7025943255918135E+00    3.7151235713868900E+01
O    1.9217812660595655E+00    7.1149268846361204E+00    3.1734563751773656E+01
O    4.9821623611611185E+00    8.1302286627515841E+00    3.3282583371172059E+01
Si    6.2960360597503939E+00    6.1944287215004890E+00    3.0843226819902544E+01
O    5.7584184338029436E+00    5.1313686022645939E+00    3.1948397533499179E+01
Si    6.4645854492544972E+00    8.5495334398881901E+00    3.2765575026320491E+01
Si    9.1677597680895033E+00    8.1633593897098233E+00    3.4087726009129270E+01
Si    9.1827960100462356E+00    5.7393251417326763E+00    3.5852403366362580E+01
O    7.5552361474027130E+00    8.3825467335473505E+00    3.3963085597414022E+01
O    9.7301641291295446E+00    9.1942461380387996E+00    3.5230265820085954E+01
O    7.8676397505784914E+00    6.1628036717102814E+00    3.6670362127632664E+01
O    9.4659851858754323E+00    6.6113123277052148E+00    3.4480158423921360E+01
O    5.3843591436290827E+00    6.7382443904250033E+00    3.6526243478552779E+01
O    6.8652797446843472E+00    7.5629340826672751E+00    3.1528694808981424E+01
O    9.9102130597238283E+00    8.5042387498544159E+00    3.2675081196676643E+01
H    6.6948453363825209E+00    9.6628923686339374E-01    3.6594346702324877E+01
H    6.9330185050322397E+00    6.2986315462586049E+00    3.6342177988219390E+01
H    4.9973919696539637E+00    2.2386326403787518E+00    3.7641906640641075E+01
H    5.4876002545409470E+00    6.9990587248908360E+00    3.7516428962120649E+01
H    1.6862410534390160E+00    9.0109416985192337E-01    3.6924850372533406E+01
H    2.0388303528871470E+00    5.7521246101380079E+00    3.7132399642100403E+01
H    3.2430974498693727E-02    2.5650497502778231E+00    3.6713672862196809E+01
H    1.1392364866655583E-01    6.1650977249517132E+00    3.7970655742746274E+01
O    5.2339895046500462E-01    1.2975206999144113E+00    2.2608471247015252E+01
O    2.9243865514200054E+00    4.6761868718953031E-01    2.3390235562626735E+01
H    2.9174237362951962E+00   -4.7052253460471383E-01    2.3128654878390112E+01
O    2.3219356828087814E+00    5.6998129999144176E+00    2.2874562682655476E+01
H    2.3567003743882000E+00    4.7778563027825474E+00    2.2563797753140818E+01
O   -2.8444032273147263E-01    5.4368988456079359E+00    2.3739030626858639E+01
O    5.1773237081286627E+00    1.6538861953033317E+00    2.2652094878966317E+01
O    7.7872524020654570E+00    1.3686329955195708E+00    2.2778204983226523E+01
H    7.6220970471899623E+00    5.7112438424476197E-01    2.2245961427762353E+01
O    7.3477287438168579E+00    6.5219742464162911E+00    2.2657885036946809E+01
H    7.0951221281373451E+00    5.8694507149583233E+00    2.1983201852281375E+01
O    4.7101942350119357E+00    7.0895709302742551E+00    2.2915037403210430E+01
H   -4.4759443815695121E-01    1.4364654389213476E+00    2.2750442641056985E+01
H    4.3274256225560297E+00    1.2550070236279705E+00    2.2978453716724029E+01
H    3.9318127144986899E+00    6.4856873424284771E+00    2.2997063893042878E+01
H   -9.8559270745954231E-01    5.9756740940420832E+00    2.3302540774865875E+01
Si    1.1406511100642081E+01    1.1354196430235721E+00    2.3884083486279046E+01
O    1.0687958286996478E+01    1.4579664788492719E-01    2.4981745058759884E+01
Si    1.1452732332197858E+01    3.5115247209845046E+00    2.5846477733634710E+01
Si    1.4081191101833483E+01    3.3220073378009940E+00    2.7322767628828426E+01
Si    1.4328047393263285E+01    8.2015907470567595E-01    2.9086404663156973E+01
O    1.2466308282979899E+01    3.2156270118541630E+00    2.7091460485567115E+01
O    1.4421166279209020E+01    4.5218438990497258E+00    2.8379123981418346E+01
O    1.3195865435678465E+01    1.4045888997914715E+00    3.0102630987398893E+01
O    1.4651215261465365E+01    1.9184874631526920E+00    2.7921738534568462E+01
O    1.0639946527069698E+01    1.7009170067926311E+00    2.9389733389686036E+01
O    1.1849844780334532E+01    2.5532213611187520E+00    2.4580970755293816E+01
O    1.4804538543592713E+01    3.6195210942642730E+00    2.5890632650259718E+01
Si    1.6363933048576648E+01    1.8103837483995107E+00    2.3590345076114225E+01
O    1.6235945185687189E+01    9.4738784563238876E-01    2.4984318335893775E+01
Si    1.6210936008549091E+01    4.2341691651183604E+00    2.5325197834982930E+01
Si    1.8693346174431358E+01    3.6913645964086159E+00    2.7236457022514710E+01
Si    1.9064171205738944E+01    1.2465395538280228E+00    2.8996543421839753E+01
O    1.7348198693552845E+01    4.1927198588934198E+00    2.6482264490182725E+01
O    1.9294065228650890E+01    4.9619833690466875E+00    2.8073700339213094E+01
O    1.8270269883238498E+01    8.8403899837354649E-01    3.0371123568029734E+01
O    1.8285313976431606E+01    2.4511712973546094E+00    2.8218377953045763E+01
O    1.5690642895047191E+01    4.7442658428077905E-01    2.9901647510671776E+01
O    1.6669361710594064E+01    3.3668075579542238E+00    2.4015702857833038E+01
O    1.9848701204194345E+01    3.1721391109645141E+00    2.6209048308977348E+01
Si    1.1112257085756898E+01    5.9201757440949878E+00    2.4096901252192144E+01
O    1.1613895319702214E+01    5.0845327242292271E+00    2.5421802908314170E+01
Si    1.0828277952036178E+01    8.5885134553095650E+00    2.5531944033123121E+01
Si    1.3562365354270005E+01    8.4952378117614309E+00    2.7032186685042081E+01
Si    1.3972420022680121E+01    6.0589353045908423E+00    2.8689098303576056E+01
O    1.1977196748606874E+01    8.5240033695830331E+00    2.6677770261007751E+01
O    1.3732758991436834E+01    9.3979053985581604E+00    2.8373973862138619E+01
O    1.2434503280090933E+01    6.1144320648273274E+00    2.9213710746856940E+01
O    1.4048868388984571E+01    6.9640173012084512E+00    2.7329625815926455E+01
O    9.9600298012201378E+00    6.6945727462506168E+00    2.9978343890678232E+01
O    1.1218219590405345E+01    7.5406190206432004E+00    2.4331222308691409E+01
O    1.4443442740059188E+01    9.0860134610983376E+00    2.5791090579916958E+01
Si    1.6028241743132334E+01    6.8763686096164633E+00    2.3682941247693375E+01
O    1.5948722862441899E+01    5.7832725074113043E+00    2.4897634002123137E+01
Si    1.6015538008978140E+01    9.3671922939807306E+00    2.5426845235292038E+01
Si    1.8352746490322588E+01    8.6531654807936320E+00    2.7327868099458744E+01
Si    1.8663384156827554E+01    6.1045079210424475E+00    2.9052857359751588E+01
O    1.6928536809148198E+01    9.2102931044611243E+00    2.6767024956312728E+01
O    1.9115242073675354E+01    9.8189251784361904E+00    2.8165419973593359E+01
O    1.7439014271318602E+01    5.4329434724060093E+00    2.9902901550786993E+01
O    1.8010303058085039E+01    7.3610865442146736E+00    2.8249939502260123E+01
O    1.5006969822796016E+01    6.6733715002035829E+00    2.9786287156251436E+01
O    1.6514318271764836E+01    8.3261748015535488E+00    2.4269054276688735E+01
O    1.9348790297506355E+01    8.1693463714945818E+00    2.6122390607621490E+01
Si    1.1650069809182401E+01    1.2003310408294334E+00    3.0574380190266382E+01
O    1.1303637383705141E+01   -3.6313796085077527E-01    3.0901917417785910E+01
Si    1.1062938399244580E+01    3.6285783821281039E+00    3.2293658417802760E+01
Si    1.3453490325581100E+01    3.6318033131176004E+00    3.4140236089817975E+01
Si    1.3710294361670853E+01    1.2477284722099229E+00    3.6091935649842782E+01
O    1.2054076151023796E+01    4.1538155760305857E+00    3.3476210430056071E+01
O    1.4208293872275673E+01    4.9290780970717289E+00    3.4789460569064282E+01
O    1.2604852784608591E+01    7.2202125446681054E-01    3.7151321545275664E+01
O    1.3050495790542536E+01    2.4731795071592515E+00    3.5205660061930793E+01
O    9.9660364558782533E+00    1.5278458308854217E+00    3.6803487161803723E+01
O    1.1440165393769677E+01    2.0873602678858050E+00    3.1924567814332679E+01
O    1.4491161885723574E+01    3.0197190174828670E+00    3.3029630882548396E+01
Si    1.6772836912277352E+01    1.0136619603971411E+00    3.0993449169330439E+01
O    1.6720038393277992E+01    1.0536049906458610E-01    3.2343509583083545E+01
Si    1.5900032596904223E+01    3.6118091240062187E+00    3.2457817390381187E+01
Si    1.8495682952683996E+01    3.4446833486036934E+00    3.4063000853928337E+01
Si    1.8799836764585407E+01    8.7757176284088190E-01    3.5730721928486190E+01
O    1.6962682923573858E+01    3.8309122411268532E+00    3.3684192567151712E+01
O    1.8907414712084336E+01    4.2834556646280584E+00    3.5419306481578452E+01
O    1.7397942649544976E+01    4.5859647805084547E-01    3.6408981182306157E+01
O    1.8630920953996139E+01    1.8665771366404362E+00    3.4418090895906751E+01
O    1.5083291608948004E+01    1.7612430937852339E+00    3.6833457057985861E+01
O    1.6493969971777350E+01    2.5762669421136808E+00    3.1355024875575126E+01
O    1.9456320237350290E+01    3.8436297407717772E+00    3.2808193040907923E+01
Si    1.1401069356016642E+01    6.0978648875798882E+00    3.0464352324806569E+01
O    1.1240833700098866E+01    4.5594101307257713E+00    3.0970931998117532E+01
Si    1.1440822750917020E+01    8.5628735572212662E+00    3.2115431279325982E+01
Si    1.3756732670096087E+01    8.6195523236791018E+00    3.4090379325562431E+01
Si    1.3853803990645856E+01    6.1305992448221129E+00    3.5840704703347029E+01
O    1.2469393066650564E+01    9.1435664586022103E+00    3.3242675263152243E+01
O    1.4431626272420406E+01    9.9153259469306789E+00    3.4837260835647442E+01
O    1.2892201333781284E+01    5.5840450696314736E+00    3.7025965976735215E+01
O    1.3218146582667153E+01    7.4458340670259986E+00    3.5088312654561463E+01
O    1.0399235647496884E+01    5.9523056419339859E+00    3.6926647723905120E+01
O    1.1936491471355545E+01    7.0701058502285399E+00    3.1665185377810857E+01
O    1.4928371767303267E+01    8.0208141535086170E+00    3.3125135316800929E+01
Si    1.6223168223481796E+01    6.1453091976422902E+00    3.0732297310188684E+01
O    1.5605651486716202E+01    5.0590918142958046E+00    3.1772930856969225E+01
Si    1.6444126291807159E+01    8.4389052147144241E+00    3.2696112203950854E+01
Si    1.9071336126883875E+01    8.2454221517206641E+00    3.4203353877952303E+01
Si    1.9066261243971891E+01    5.8144664469797664E+00    3.5974967685224669E+01
O    1.7454825139299594E+01    8.2140378801777274E+00    3.3960017253520903E+01
O    1.9404737229539531E+01    9.3562939137153318E+00    3.5355553617920300E+01
O    1.7793525616761734E+01    6.4204418563416050E+00    3.6777352843711540E+01
O    1.9556267172207452E+01    6.7757919640585538E+00    3.4742527636575893E+01
O    1.5271647177205253E+01    6.5582151789365053E+00    3.6557702531258791E+01
O    1.6870236761393475E+01    7.4537612906392674E+00    3.1470217031091021E+01
O    1.9833618540173642E+01    8.5929165669603975E+00    3.2809396344322330E+01
H    1.6616075630318480E+01    1.0575329856730946E+00    3.6545133171828049E+01
H    1.6829931113167806E+01    6.3950911877107899E+00    3.6472576273835081E+01
H    1.4962723237810534E+01    2.5472671770782442E+00    3.7451090449132359E+01
H    1.5105357862579044E+01    7.2657696878480715E+00    3.7284731839262868E+01
H    1.1655928439769575E+01    9.6019158063182974E-01    3.7007405514134398E+01
H    1.1878949341849269E+01    5.6637248485461376E+00    3.6955606659972617E+01
H    9.9998397989622188E+00    2.4999573418842163E+00    3.6708583581052970E+01
H    1.0236275512787177E+01    6.7735641779925642E+00    3.7526923216959467E+01
O    1.0474446862259692E+01    1.3879589066283065E+00    2.2588509737660697E+01
O    1.2843434938084123E+01    4.7028544695998320E-01    2.3393781655377847E+01
H    1.2830205850686548E+01   -4.6093167501720295E-01    2.3109273108134285E+01
O    1.2227220688960337E+01    5.6712225784128520E+00    2.2884719895173991E+01
H    1.2257643940753569E+01    4.7525465734215757E+00    2.2564144028809313E+01
O    9.6265957976881253E+00    5.3797766730382071E+00    2.3752165765746316E+01
O    1.5090601846800240E+01    1.6616145229849646E+00    2.2606187468516001E+01
O    1.7702135251904032E+01    1.3516888131017137E+00    2.2719717721864079E+01
H    1.7525398871113094E+01    5.7784842732749520E-01    2.2157355713773214E+01
O    1.7265119633512853E+01    6.4842591543326824E+00    2.2638551646476408E+01
H    1.7041678982569302E+01    5.7690959994404434E+00    2.2018922151281579E+01
O    1.4623085266974220E+01    7.0619500795461505E+00    2.2892839018310859E+01
H    9.5012939760029020E+00    1.5127336292048694E+00    2.2732663639136526E+01
H    1.4244076312466248E+01    1.2645987110163648E+00    2.2942843274405067E+01
H    1.3844110673618829E+01    6.4610670829931429E+00    2.2986695416377479E+01
H    8.9266899482978683E+00    5.9205533742890069E+00    2.3314243563537879E+01
Si    1.4868648184949096E+00    1.1098831239775627E+01    2.3843451074855452E+01
O    8.5775124924240342E-01    1.0124429071320721E+01    2.5004237317838211E+01
Si    1.4863900112409956E+00    1.3476918086871661E+01    2.5794398903139669E+01
Si    4.1184183595696320E+00    1.3301735180806379E+01    2.7269592418434716E+01
Si    4.3779086878006712E+00    1.0819532335478627E+01    2.9009258774438905E+01
O    2.5101321084638899E+00    1.3153630459049989E+01    2.7021840606407331E+01
O    4.4219702672098702E+00    1.4453838334529774E+01    2.8387358858058427E+01
O    3.2683924925185810E+00    1.1441121101045566E+01    3.0033992097270083E+01
O    4.6959153912820950E+00    1.1879284784748686E+01    2.7810675002967610E+01
O    6.7799679717317607E-01    1.1642949751323741E+01    2.9425387171228056E+01
O    1.8588338069756409E+00    1.2564784702574295E+01    2.4485394357813274E+01
O    4.8581327011361655E+00    1.3674149831709967E+01    2.5863335848316254E+01
Si    6.4119096508415296E+00    1.1830377057842112E+01    2.3565543588155098E+01
O    6.1937179429460452E+00    1.0917923309049149E+01    2.4911503049775842E+01
Si    6.3177656981862995E+00    1.4220327647434702E+01    2.5359494063487968E+01
Si    8.7434561632091814E+00    1.3601824359840291E+01    2.7319466339302320E+01
Si    9.0913861543405545E+00    1.1167310041612328E+01    2.9108033491857473E+01
O    7.3991322459814173E+00    1.4107624548519386E+01    2.6565365970332518E+01
O    9.3426605829357694E+00    1.4855599164166268E+01    2.8180480823703743E+01
O    8.2848261365316009E+00    1.0883020692250350E+01    3.0500804992230101E+01
O    8.3281472540922543E+00    1.2354836829400950E+01    2.8288209863781869E+01
O    5.7700929023562733E+00    1.0501923160344733E+01    2.9781999677617542E+01
O    6.7874164395709817E+00    1.3349590549888788E+01    2.4058483732865323E+01
O    9.9015461554280328E+00    1.3088585085590275E+01    2.6291028215154483E+01
Si    1.2252858711290016E+00    1.5913052282890177E+01    2.4082271035607363E+01
O    1.6575743124412552E+00    1.5058841390551223E+01    2.5418259562031185E+01
Si    9.6861824985125800E-01    1.8512423802485252E+01    2.5592686946540603E+01
Si    3.6800951762193352E+00    1.8460915513532296E+01    2.7132941201635198E+01
Si    4.0484351825325602E+00    1.5998710833617572E+01    2.8744437074780130E+01
O    2.0957155762528248E+00    1.8427480639073984E+01    2.6761900013266118E+01
O    3.8323236459796446E+00    1.9357037554171590E+01    2.8484555997422554E+01
O    2.4899488696711845E+00    1.6145461800785800E+01    2.9202628731680853E+01
O    4.2287162371174567E+00    1.6946940763285674E+01    2.7425066612612255E+01
O    2.6919526023776057E-02    1.6458534734345978E+01    3.0148288548966136E+01
O    1.3922756110072487E+00    1.7523942458615906E+01    2.4349403733862889E+01
O    4.5345181485476864E+00    1.9076052650744010E+01    2.5883953165298728E+01
Si    6.1586899255077459E+00    1.6862169098394730E+01    2.3715187652739772E+01
O    6.1559484788571401E+00    1.5787177461695597E+01    2.4947044172732706E+01
Si    6.1144835346729680E+00    1.9313774723078808E+01    2.5522438709766110E+01
Si    8.4599978316521387E+00    1.8540868752474335E+01    2.7399008845296471E+01
Si    8.7659657890257368E+00    1.5994735525672500E+01    2.9195143828446497E+01
O    7.0007304829817310E+00    1.9022667166466260E+01    2.6857038970273866E+01
O    9.2090670442525617E+00    1.9781704092192495E+01    2.8128403891767032E+01
O    7.5038469577009250E+00    1.5377315824510378E+01    3.0029775230320318E+01
O    8.1985408406198452E+00    1.7307358047415253E+01    2.8419698456942481E+01
O    5.0355573875866888E+00    1.6503155810851581E+01    2.9932970806435947E+01
O    6.5788582380509695E+00    1.8332854088281671E+01    2.4298901999024977E+01
O    9.4305800246732243E+00    1.8024996903540732E+01    2.6184807540835994E+01
Si    1.7513505054416219E+00    1.1172168430707796E+01    3.0567510203287487E+01
O    1.4939919755033650E+00    9.5940282487252162E+00    3.0889374470580165E+01
Si    1.2486911781544878E+00    1.3582095992210562E+01    3.2337059752240279E+01
Si    3.5423842529209186E+00    1.3597859838774241E+01    3.4343102631275656E+01
Si    4.0846640509338021E+00    1.1156952103539734E+01    3.6132107359355864E+01
O    2.0933769547700578E+00    1.3973459843913494E+01    3.3680357648814315E+01
O    4.1902498487458111E+00    1.4904619001001324E+01    3.5051919425029432E+01
O    3.2477059078959973E+00    1.0704376254779776E+01    3.7456062642771826E+01
O    3.2195080599817532E+00    1.2380382498727991E+01    3.5399914661221601E+01
O    7.4346761282592855E-01    1.1502420028219017E+01    3.6373510181940837E+01
O    1.5572420298875691E+00    1.2030738184923889E+01    3.1943536817810266E+01
O    4.5922329189931608E+00    1.3042646619834558E+01    3.3221063037853838E+01
Si    6.7323463707507711E+00    1.1023254049570497E+01    3.0984830842480594E+01
O    6.4915292571408223E+00    1.0118301481015120E+01    3.2312590048680860E+01
Si    6.0009395699747810E+00    1.3558775831229633E+01    3.2578731622465924E+01
Si    8.7024869346881637E+00    1.3208180758993009E+01    3.4043470335649111E+01
Si    9.2189047649762532E+00    1.0680352415271267E+01    3.5674190568754767E+01
O    7.1452087339975039E+00    1.3555945934363899E+01    3.3749557508134593E+01
O    9.2143747482553895E+00    1.4011791761634178E+01    3.5371958413875070E+01
O    7.9446875755253368E+00    1.0565764812914374E+01    3.6670919904120112E+01
O    8.9064296578687383E+00    1.1614305009049383E+01    3.4355696386825024E+01
O    5.5695650818507652E+00    1.1678083474306899E+01    3.6575589138211690E+01
O    6.4119451653271957E+00    1.2581031926525240E+01    3.1345357863300528E+01
O    9.5982933634485335E+00    1.3635260909243476E+01    3.2742405242779022E+01
Si    1.5581012665502485E+00    1.6056287777102256E+01    3.0530050672141421E+01
O    1.6620286881638613E+00    1.4525779225027653E+01    3.1082866076320208E+01
Si    1.5057081856261645E+00    1.8558172437433722E+01    3.2167157446099445E+01
Si    3.7985235856163975E+00    1.8691106113495589E+01    3.4149923726340276E+01
Si    4.0051115589391992E+00    1.6274577958205480E+01    3.5938995360926619E+01
O    2.5591823472382016E+00    1.9205103584094569E+01    3.3228515114048143E+01
O    4.3484523803575810E+00    1.9942405220782572E+01    3.5035528631605857E+01
O    3.2422685434140268E+00    1.6009486190901093E+01    3.7334201361373601E+01
O    3.2610807361958711E+00    1.7445079381427441E+01    3.5058898222426130E+01
O    6.5843880766429919E-01    1.5355272514178811E+01    3.7035867356773821E+01
O    2.0633873423048037E+00    1.7098835872379428E+01    3.1679304371005173E+01
O    5.0328253606241358E+00    1.8143921624803156E+01    3.3233724808078797E+01
Si    6.3030493871991959E+00    1.6102758887798377E+01    3.0870793408055107E+01
O    5.7963761956891435E+00    1.5077867914864251E+01    3.2032998914291440E+01
Si    6.5617663802177173E+00    1.8451566755599043E+01    3.2779693547169209E+01
Si    9.1924934970776082E+00    1.8085556261634331E+01    3.4294704753705425E+01
Si    9.2486543582738001E+00    1.5510987862968221E+01    3.6054094024675827E+01
O    7.5820044118637817E+00    1.8116161246138653E+01    3.4010073393511362E+01
O    9.6010647591395681E+00    1.9250818858879825E+01    3.5360874397147924E+01
O    7.9016108621938885E+00    1.5776416561843439E+01    3.6932323680006640E+01
O    9.5760195644345831E+00    1.6610748182978025E+01    3.4895518103117276E+01
O    5.5702390797033559E+00    1.6762312922608039E+01    3.6238995875516757E+01
O    6.9005289036323649E+00    1.7479208936384524E+01    3.1511840574583356E+01
O    9.9861270739758261E+00    1.8319157563721312E+01    3.2891155554007192E+01