%nprocshared=16
%mem=2000MW
%chk=c2sdimerts2nbo.chk
# wb97xd/6-311++g(d,p) scrf=(cpcm,solvent=water) nosymm
pop=(savenbos,nboread) scf=xqc

c2sdimerts2nbo

-1 1
 Si                -2.05317580   -0.18463811    0.00000000
 O                 -3.72103480   -0.05548011   -0.20891000
 O                 -1.80821880   -0.25110311   -1.73224500
 O                 -1.82079380    1.37420989    0.68157200
 O                 -2.19866380   -1.57986411    0.99160100
 Ca                -5.03888980    1.64667389   -1.02909300
 O                 -5.30914380   -0.82799811   -2.02287200
 O                 -5.79780880    0.44058189    1.11565400
 O                 -3.92176980    3.07869489    0.21295500
 O                 -3.47451780    1.43089989   -2.86999800
 H                 -4.88624980    0.09613989    0.83228000
 H                 -5.65945380    0.96208589    1.90807500
 H                 -4.56240680   -0.76039811   -1.34322900
 H                 -4.87960280   -0.81568911   -2.88046000
 H                 -2.59885880    1.96928989    0.56893600
 H                 -3.70858680    4.00378189    0.31576600
 H                 -2.78871580    0.80135689   -2.51039600
 H                 -3.00233980    2.13995089   -3.30853100
 H                 -1.31029680   -1.85572511    1.22590800
 H                 -0.87674180   -0.19886511   -1.98271400
 Si                 1.04766320    0.41509489   -0.29137700
 O                  2.48618720   -0.08978311    0.22755100
 O                  0.75846120    2.00714589    0.12432800
 O                  1.07901920    0.40564889   -1.98937800
 O                 -0.22870580   -0.45975611    0.19369500
 Ca                 4.24858520   -0.67840411   -1.30366200
 O                  4.85092920    0.82837989    0.64379000
 O                  3.76925020   -2.30355711    0.54974500
 O                  2.71087620   -1.49593411   -2.67114900
 O                  3.59467420    1.44792289   -2.40896100
 H                  3.04391620   -1.64262011    0.67474700
 H                  3.35262620   -3.14969911    0.37766100
 H                  3.87006320    0.75643889    0.74772800
 H                  5.06969020    1.76058989    0.60689500
 H                  1.56392420   -0.40090811   -2.34380600
 H                  2.56019520   -2.16927511   -3.33064200
 H                  2.62208520    1.33073689   -2.39506700
 H                  3.76621220    2.31487889   -2.03592300
 H                 -0.18405780    2.04799889    0.38935400

$nbo nlmo bndidx $end
