%nprocshared=16
%mem=2000MW
%chk=c2sdimerts1nbo.chk
# wb97xd/6-311++g(d,p) scrf=(cpcm,solvent=water) nosymm
pop=(savenbos,nboread) scf=xqc

c2sdimerts1nbo

-1 1
 Si                 0.28064993   -0.59822747    0.00000000
 O                 -1.31774707   -0.58207147    0.08386200
 O                  0.72916193   -0.97227747   -1.57774000
 O                  0.90724593    0.89874353    0.38087800
 O                  1.05821193   -1.70215347    0.95977300
 Ca                -2.52167607    1.12229953   -1.15223900
 O                 -3.42615507   -1.26880447   -1.25702600
 O                 -3.15771807    0.79140353    1.26744300
 O                 -0.88981107    2.52400953   -0.57435100
 O                 -1.22320207    0.15907053   -2.99668500
 H                 -2.37891607    0.18975553    1.19291300
 H                 -2.93340007    1.45959753    1.91742300
 H                 -2.58829707   -1.38859847   -0.75027200
 H                 -3.29678207   -1.71168447   -2.09805500
 H                  0.30469393    1.62928953    0.03685500
 H                 -0.63356107    3.38532953   -0.90039800
 H                 -0.41870207   -0.29026947   -2.64778200
 H                 -0.94112007    0.68317453   -3.74843600
 H                  1.93539393   -1.85932747    0.52640400
 H                  1.68499193   -1.25373647   -1.54576400
 Si                 4.26000993   -0.55257247   -0.64275700
 O                  5.67180493   -1.00555747    0.02919400
 O                  3.71149493    0.80744353    0.18045100
 O                  4.65810093    0.07569653   -2.17983700
 O                  3.11972293   -1.67538547   -0.75534500
 Ca                 7.71930993   -0.95083047   -1.21235600
 O                  7.74900293   -0.04344747    1.16449300
 O                  7.11955993   -3.10974847   -0.02548200
 O                  6.64585593   -1.42572947   -3.09135500
 O                  6.98514993    1.35377253   -1.75729300
 H                  6.32353393   -2.52833347    0.11738700
 H                  6.82536493   -3.87164247   -0.52736500
 H                  6.78754793   -0.24128447    1.00659900
 H                  7.81648293    0.87712653    1.42144700
 H                  5.24593993   -0.55383047   -2.67569700
 H                  6.60107693   -2.11331447   -3.75231200
 H                  6.04286593    1.12283553   -1.93694800
 H                  6.97302493    2.06260753   -1.11170800
 H                  2.74421693    0.90081053    0.23233100

$nbo nlmo bndidx $end
