 # Version information for this restart file 
 # current date 2024-11-08 15:45:06.661
 # current working dir /scratch4/nmitra1/alumina_cp2k/cellopt_dftd3BJ/222
 # Program compiled at                              Wed May 17 21:13:02 EDT 2023
 # Program compiled on                                                      c718
 # Program compiled for                            linux-centos8-cascadelake-gcc
 # Source code revision number                                       git:a8a26f8
 &GLOBAL
   PRINT_LEVEL  MEDIUM
   PROJECT_NAME Alumina_dftd3bj2
   RUN_TYPE  CELL_OPT
 &END GLOBAL
 &MOTION
   &CELL_OPT
     OPTIMIZER  BFGS
     MAX_FORCE     1.9000000000000001E-05
     STEP_START_VAL  32
     TYPE  DIRECT_CELL_OPT
     &PRINT
       &CELL  ON
       &END CELL
     &END PRINT
   &END CELL_OPT
 &END MOTION
 &FORCE_EVAL
   METHOD  QS
   STRESS_TENSOR  ANALYTICAL
   &DFT
     BASIS_SET_FILE_NAME ../../cp2k-data/BASIS_MOLOPT
     POTENTIAL_FILE_NAME ../../cp2k-data/GTH_POTENTIALS
     MULTIPLICITY  1
     CHARGE  0
     &SCF
       MAX_SCF  200
       EPS_SCF     1.0000000000000000E-08
       SCF_GUESS  ATOMIC
       &OT  T
         MINIMIZER  CG
       &END OT
       &OUTER_SCF  T
         EPS_SCF     1.0000000000000000E-08
         MAX_SCF  20
       &END OUTER_SCF
       &MIXING  T
         METHOD  BROYDEN_MIXING
         ALPHA     2.9999999999999999E-01
         NBUFFER  15
       &END MIXING
     &END SCF
     &QS
       EPS_DEFAULT     9.9999999999999998E-13
       EXTRAPOLATION  USE_PREV_P
       METHOD  GPW
     &END QS
     &MGRID
       CUTOFF     1.0000000000000000E+03
       REL_CUTOFF     7.0000000000000000E+01
     &END MGRID
     &XC
       DENSITY_CUTOFF     1.0000000000000000E-10
       GRADIENT_CUTOFF     1.0000000000000000E-10
       TAU_CUTOFF     1.0000000000000000E-10
       &XC_FUNCTIONAL  NO_SHORTCUT
         &PBE  T
         &END PBE
       &END XC_FUNCTIONAL
       &VDW_POTENTIAL
         POTENTIAL_TYPE  PAIR_POTENTIAL
         &PAIR_POTENTIAL
           R_CUTOFF     2.0000000000000004E+01
           TYPE  DFTD3(BJ)
           PARAMETER_FILE_NAME ../../cp2k-data/dftd3.dat
           REFERENCE_FUNCTIONAL PBE
           CALCULATE_C9_TERM  T
         &END PAIR_POTENTIAL
       &END VDW_POTENTIAL
     &END XC
     &POISSON
       POISSON_SOLVER  PERIODIC
       PERIODIC  XYZ
     &END POISSON
   &END DFT
   &SUBSYS
     &CELL
       A     1.1081878979034979E+01    0.0000000000000000E+00    0.0000000000000000E+00
       B     3.4259550310272382E-07    1.6686122385213263E+01    0.0000000000000000E+00
       C    -1.6135109844119833E-01    4.4709107013418178E-08    1.6045961528158621E+01
       MULTIPLE_UNIT_CELL  1 1 1
     &END CELL
     &COORD
Al    2.0879194681762856E+00    6.2572959851555652E+00    1.0082003503979220E+00
Al    4.7703699315672310E+00    2.0857654191576418E+00    4.0039194174114821E+00
Al    4.8449203993963819E+00    6.2572958064499948E+00    1.0061525116162156E+00
Al    3.3538615654633626E+00    6.2572958787989688E+00    5.9812189626602130E+00
Al    1.9833489032153744E+00    6.2927763713691831E-01    4.9211568040905336E+00
Al    5.7652778257766735E-01    4.8281397259219379E+00    6.9222002365972415E+00
O    4.8166057362092287E+00    6.2572960089511520E+00    7.0330073791400771E+00
O    3.3382617399452719E+00    2.0857653750433762E+00    5.1375858704640951E+00
O    1.9347842602167753E+00    6.2572960324175595E+00    7.1356057347838746E+00
O    6.8840041207068392E-01    2.0857654114642146E+00    5.0382764346640938E+00
O    4.8420956478788977E+00    3.3875331091588530E+00    7.2060673317775858E+00
O    3.3132891317955684E+00    7.6644882636130740E+00    4.9262874468501483E+00
O    1.9097751973930566E+00    3.3899736659870152E+00    6.8552346970658471E+00
O    6.9114004880732016E-01    7.6560656490662105E+00    5.1084828705175740E+00
Al    3.3723484335594063E+00    2.0857654020824090E+00    7.0147814605630687E+00
Al    6.8989788251855055E-01    6.2572959189296551E+00    4.0190620438870983E+00
Al    6.1534761592732423E-01    2.0857654241843497E+00    7.0168292491000903E+00
Al    2.1064064574195087E+00    2.0857653730372085E+00    2.0417625289334098E+00
Al    3.4769190858645800E+00    4.8008080881357156E+00    3.1018246320356875E+00
Al    3.4769192890187588E+00    7.7137842995631241E+00    3.1018246407446850E+00
Al    1.9833488984283800E+00    3.5422531829586719E+00    4.9211567802348544E+00
Al    4.8837402376759158E+00    6.5660910966260833E-01    1.1007816534685702E+00
Al    4.8837402878151526E+00    3.5149216469970317E+00    1.1007816344537540E+00
Al    5.7652751110097233E-01    7.6864525866419280E+00    6.9222001193682177E+00
O    6.4366222630808390E-01    2.0857653531639899E+00    9.8997445655836291E-01
O    2.1220061578713176E+00    6.2572959735300868E+00    2.8853957308208908E+00
O    3.5254837834413828E+00    2.0857653794445872E+00    8.8737621653341747E-01
O    4.7718674819957450E+00    6.2572959628566247E+00    2.9847050888711060E+00
O    6.1817239263379908E-01    7.5590637428139154E+00    8.1691461948234423E-01
O    6.1817232270603517E-01    4.9555281537683067E+00    8.1691462307339502E-01
O    4.8420955943229274E+00    7.8399776166442536E-01    7.2060673201961407E+00
O    2.1469792367403842E+00    3.4929574891114989E+00    3.0966940695330254E+00
O    2.1469791865287808E+00    6.7857329552911871E-01    3.0966940830716867E+00
O    3.3132889787880226E+00    4.8501037066438526E+00    4.9262873843348132E+00
O    3.5504929607593079E+00    7.5615044416478936E+00    1.1677470736033009E+00
O    3.5504928331247063E+00    4.9530876141643203E+00    1.1677469983409898E+00
O    1.9097751616518428E+00    7.8155715968612394E-01    6.8552347359142694E+00
O    4.7691280677537833E+00    3.4845349732736541E+00    2.9144986976720646E+00
O    4.7691280454031073E+00    6.8699588169809056E-01    2.9144987083405773E+00
O    6.9114020123697673E-01    4.8585264680805889E+00    5.1084829848021656E+00
Al    7.6288588383311202E+00    6.2572959459584609E+00    1.0082004022349562E+00
Al    1.0311309444053622E+01    2.0857653934849920E+00    4.0039194233228770E+00
Al    1.0385859884775565E+01    6.2572957801849167E+00    1.0061525359339323E+00
Al    8.8948009628173885E+00    6.2572958598042678E+00    5.9812189276590066E+00
Al    7.5242882427643831E+00    6.2927764200749758E-01    4.9211567012799540E+00
Al    6.1174672279472562E+00    4.8281397033024591E+00    6.9222001753589035E+00
O    1.0357545204423340E+01    6.2572960186077147E+00    7.0330073504416477E+00
O    8.8792011411924889E+00    2.0857653609882552E+00    5.1375857842880359E+00
O    7.4757236673457772E+00    6.2572959978583533E+00    7.1356056797571359E+00
O    6.2293398241658577E+00    2.0857654030038058E+00    5.0382763685911058E+00
O    1.0383035174391352E+01    3.3875330828319439E+00    7.2060673247628442E+00
O    8.8542285090056883E+00    7.6644882547817179E+00    4.9262874215301755E+00
O    7.4507145853322410E+00    3.3899736448856008E+00    6.8552346106054882E+00
O    6.2320794334197718E+00    7.6560656242343779E+00    5.1084828325549294E+00
Al    8.9132878085548413E+00    2.0857653794209110E+00    7.0147813783242672E+00
Al    6.2308372963660590E+00    6.2572958921607951E+00    4.0190620251412428E+00
Al    6.1562869672180138E+00    2.0857654273108608E+00    7.0168291527796613E+00
Al    7.6473458353991814E+00    2.0857653559511653E+00    2.0417624625957393E+00
Al    9.0178584883977120E+00    4.8008080478519046E+00    3.1018245699236120E+00
Al    9.0178586910792369E+00    7.7137842861454731E+00    3.1018246195485646E+00
Al    7.5242882580596175E+00    3.5422531523096574E+00    4.9211566723446776E+00
Al    1.0424679815657464E+01    6.5660907765136911E-01    1.1007816846588141E+00
Al    1.0424679853867199E+01    3.5149216126609870E+00    1.1007816431869817E+00
Al    6.1174669510958877E+00    7.6864525163999087E+00    6.9222000737452642E+00
O    6.1846016660603746E+00    2.0857653706318771E+00    9.8997440328640318E-01
O    7.6629455781856182E+00    6.2572959504093211E+00    2.8853957357860454E+00
O    9.0664232419457704E+00    2.0857653566557732E+00    8.8737621408631306E-01
O    1.0312806976636026E+01    6.2572959519780813E+00    2.9847050684528638E+00
O    6.1591118855476230E+00    7.5590637101714133E+00    8.1691463971800782E-01
O    6.1591118160706495E+00    4.9555281462820977E+00    8.1691466300724891E-01
O    1.0383035120641669E+01    7.8399776487514383E-01    7.2060673036719711E+00
O    7.6879186100325558E+00    3.4929574788856108E+00    3.0966939897628376E+00
O    7.6879185465178805E+00    6.7857327845270654E-01    3.0966940117260604E+00
O    8.8542283389136358E+00    4.8501036917214284E+00    4.9262873339035842E+00
O    9.0914323974910065E+00    7.5615043997110476E+00    1.1677470762124533E+00
O    9.0914322876716671E+00    4.9530875938876049E+00    1.1677470011387165E+00
O    7.4507145431282202E+00    7.8155716375651707E-01    6.8552346506148343E+00
O    1.0310067519212412E+01    3.4845349442518088E+00    2.9144987011822430E+00
O    1.0310067492813861E+01    6.8699585019369946E-01    2.9144987246852851E+00
O    6.2320795582507831E+00    4.8585264256365797E+00    5.1084829247088113E+00
Al    2.0879196369036603E+00    1.4600357488604171E+01    1.0082003624223035E+00
Al    4.7703702811050270E+00    1.0428827030338962E+01    4.0039194879726407E+00
Al    4.8449205962789890E+00    1.4600357432130055E+01    1.0061524733483651E+00
Al    3.3538617645382747E+00    1.4600357452697365E+01    5.9812190229810147E+00
Al    1.9833490171949006E+00    8.9723385385007450E+00    4.9211569092065712E+00
Al    5.7652793753337461E-01    1.3171201266787126E+01    6.9222002405835052E+00
O    4.8166059543669011E+00    1.4600357441510040E+01    7.0330074166481875E+00
O    3.3382620126270930E+00    1.0428826786481444E+01    5.1375859450285404E+00
O    1.9347845005266651E+00    1.4600357450448897E+01    7.1356058270408518E+00
O    6.8840069720834740E-01    1.0428826867474738E+01    5.0382765037202129E+00
O    4.8420958766024400E+00    1.1730594609718599E+01    7.2060673946533891E+00
O    3.3132892827863896E+00    1.6007549537565502E+01    4.9262873738809754E+00
O    1.9097754529093074E+00    1.1733035177915452E+01    6.8552347871248376E+00
O    6.9114046486756198E-01    1.5999126862753460E+01    5.1084829727460779E+00
Al    3.3723486426462528E+00    1.0428826725757395E+01    7.0147815560254543E+00
Al    6.8989815687497569E-01    1.4600357448718189E+01    4.0190620320251975E+00
Al    6.1534786506407779E-01    1.0428826995446880E+01    7.0168293472214618E+00
Al    2.1064066202917644E+00    1.0428826946300438E+01    2.0417626842223626E+00
Al    3.4769193359205262E+00    1.3143869699465016E+01    3.1018246665135432E+00
Al    3.4769194206957490E+00    1.6056845213215624E+01    3.1018246411798356E+00
Al    1.9833492302039590E+00    1.1885314750758603E+01    4.9211568953010234E+00
Al    4.8837406537987462E+00    8.9996702869280671E+00    1.1007817369849811E+00
Al    4.8837404669208242E+00    1.1857983293209227E+01    1.1007816610210137E+00
Al    5.7652797389265542E-01    1.6029513641253871E+01    6.9222001952439349E+00
O    6.4366241073019603E-01    1.0428826848305487E+01    9.8997452141781084E-01
O    2.1220063892253598E+00    1.4600357430356862E+01    2.8853957162138117E+00
O    3.5254839962379729E+00    1.0428826870230900E+01    8.8737630606565421E-01
O    4.7718677564859586E+00    1.4600357446895890E+01    2.9847050727420532E+00
O    6.1817253736597855E-01    1.5902125097122267E+01    8.1691466742223384E-01
O    6.1817251045558719E-01    1.3298589745423996E+01    8.1691465154830012E-01
O    4.8420957923875561E+00    9.1270590987119178E+00    7.2060674061468664E+00
O    2.1469794828484514E+00    1.1836019092302724E+01    3.0966941605961535E+00
O    2.1469792923837625E+00    9.0216345507687521E+00    3.0966941104549566E+00
O    3.3132892499564335E+00    1.3193165310694956E+01    4.9262874191969104E+00
O    3.5504930858599812E+00    1.5904565717405037E+01    1.1677469976778863E+00
O    3.5504930530880974E+00    1.3296149193160721E+01    1.1677470230215750E+00
O    1.9097752940836077E+00    9.1246183775541247E+00    6.8552347313123452E+00
O    4.7691283200965051E+00    1.1827596579151205E+01    2.9144987459314908E+00
O    4.7691284214873502E+00    9.0300571588300880E+00    2.9144988657569511E+00
O    6.9114048075334955E-01    1.3201588010136835E+01    5.1084830095094915E+00
Al    7.6288590169390478E+00    1.4600357502839914E+01    1.0082004260423232E+00
Al    1.0311309756061387E+01    1.0428826988625342E+01    4.0039194759062253E+00
Al    1.0385860066348114E+01    1.4600357406759750E+01    1.0061525166681109E+00
Al    8.8948011464099483E+00    1.4600357443151919E+01    5.9812189716356077E+00
Al    7.5242883871254662E+00    8.9723385262134645E+00    4.9211568329349831E+00
Al    6.1174674075351669E+00    1.3171201259669440E+01    6.9222001911458264E+00
O    1.0357545407108461E+01    1.4600357437804664E+01    7.0330073735587977E+00
O    8.8792014108691415E+00    1.0428826756614985E+01    5.1375858675102775E+00
O    7.4757239083068123E+00    1.4600357441927519E+01    7.1356057666098796E+00
O    6.2293401315156522E+00    1.0428826858377692E+01    5.0382764564826843E+00
O    1.0383035382675669E+01    1.1730594565040398E+01    7.2060673787228442E+00
O    8.8542286370954244E+00    1.6007549537772579E+01    4.9262873312431523E+00
O    7.4507148566967683E+00    1.1733035153332176E+01    6.8552347127875342E+00
O    6.2320798407141540E+00    1.5999126855353531E+01    5.1084829271035463E+00
Al    8.9132880108634787E+00    1.0428826651797175E+01    7.0147814837708369E+00
Al    6.2308375966034273E+00    1.4600357428866454E+01    4.0190620228406733E+00
Al    6.1562872330652301E+00    1.0428826999071651E+01    7.0168292546851312E+00
Al    7.6473460244710516E+00    1.0428826928203961E+01    2.0417626456062701E+00
Al    9.0178587272396822E+00    1.3143869664770401E+01    3.1018246004396604E+00
Al    9.0178587999909361E+00    1.6056845224586674E+01    3.1018245963130751E+00
Al    7.5242886045021784E+00    1.1885314717180165E+01    4.9211568074996270E+00
Al    1.0424680119256811E+01    8.9996701785254380E+00    1.1007817324443918E+00
Al    1.0424679998259718E+01    1.1857983244160980E+01    1.1007816579845662E+00
Al    6.1174674273915937E+00    1.6029513635502070E+01    6.9222001434654992E+00
O    6.1846018860123744E+00    1.0428826883976230E+01    9.8997448639596197E-01
O    7.6629458131490535E+00    1.4600357418109779E+01    2.8853957238124037E+00
O    9.0664234349901278E+00    1.0428826820153875E+01    8.8737629199696899E-01
O    1.0312807236987018E+01    1.4600357436432311E+01    2.9847050480435806E+00
O    6.1591120585973140E+00    1.5902125109555241E+01    8.1691470654249987E-01
O    6.1591120313681325E+00    1.3298589753167702E+01    8.1691470221059892E-01
O    1.0383035291289456E+01    9.1270590609579401E+00    7.2060673796641064E+00
O    7.6879188537494576E+00    1.1836019081790660E+01    3.0966940974050035E+00
O    7.6879186674412159E+00    9.0216345231581414E+00    3.0966940556650151E+00
O    8.8542286155189753E+00    1.3193165296462546E+01    4.9262873666683218E+00
O    9.0914325270870400E+00    1.5904565698234862E+01    1.1677470066676585E+00
O    9.0914324921567644E+00    1.3296149175923736E+01    1.1677470264771634E+00
O    7.4507146857804454E+00    9.1246183625564949E+00    6.8552346604544248E+00
O    1.0310067743898438E+01    1.1827596538243890E+01    2.9144987376737932E+00
O    1.0310067844486047E+01    9.0300571140678372E+00    2.9144988634024340E+00
O    6.2320798570080216E+00    1.3201587975373499E+01    5.1084829609575166E+00
Al    2.0072440276804211E+00    6.2572961544344032E+00    9.0311813860634071E+00
Al    4.6896944830361509E+00    2.0857654849427827E+00    1.2026900787352414E+01
Al    4.7642448445572381E+00    6.2572958951808033E+00    9.0291335964990669E+00
Al    3.2731860669975870E+00    6.2572958905229612E+00    1.4004200180460868E+01
Al    1.9026734272377768E+00    6.2927766999946877E-01    1.2944138262762410E+01
Al    4.9585207060302711E-01    4.8281396210838157E+00    1.4945181136960908E+01
O    4.7359302666783467E+00    6.2572959963435979E+00    1.5055988383316867E+01
O    3.2575862568431311E+00    2.0857654134796180E+00    1.3160567162873186E+01
O    1.8541086731559557E+00    6.2572960040642149E+00    1.5158586591412002E+01
O    6.0772485538110421E-01    2.0857654428635604E+00    1.3061257749749904E+01
O    4.7614200945559846E+00    3.3875331316344082E+00    1.5229048222791727E+01
O    3.2326136634863718E+00    7.6644883260901260E+00    1.2949268762173888E+01
O    1.8290996356931095E+00    3.3899736890712227E+00    1.4878215814269836E+01
O    6.1046451267813739E-01    7.6560657267064629E+00    1.3131463972281619E+01
Al    3.2916730424022997E+00    2.0857654103053576E+00    1.5037762483268530E+01
Al    6.0922236860542789E-01    6.2572959513055109E+00    1.2042043270186841E+01
Al    5.3467202875391950E-01    2.0857654235401997E+00    1.5039810254188922E+01
Al    2.0257308574660979E+00    2.0857654176179459E+00    1.0064743857421236E+01
Al    3.3962436056759260E+00    4.8008081416963035E+00    1.1124805986586180E+01
Al    3.3962438577458816E+00    7.7137843685231227E+00    1.1124805981855783E+01
Al    1.9026734401680145E+00    3.5422532138396003E+00    1.2944138209310157E+01
Al    4.8030646701936845E+00    6.5660924740619331E-01    9.1237627162497574E+00
Al    4.8030647317353434E+00    3.5149216175146818E+00    9.1237626778439029E+00
Al    4.9585198639959222E-01    7.6864526666330510E+00    1.4945181090364088E+01
O    5.6298665628675504E-01    2.0857653965339464E+00    9.0129555041692981E+00
O    2.0413306770172368E+00    6.2572960488933527E+00    1.0908376956125760E+01
O    3.4448081360730658E+00    2.0857654304784732E+00    8.9103571923521177E+00
O    4.6911919863132852E+00    6.2572960234846544E+00    1.1007686375175483E+01
O    5.3749680924280097E-01    7.5590637833358327E+00    8.8398955227173541E+00
O    5.3749671414889144E-01    4.9555282800410128E+00    8.8398955235820686E+00
O    4.7614200608265582E+00    7.8399774200281314E-01    1.5229048218051425E+01
O    2.0663037343462118E+00    3.4929575134687498E+00    1.1119675465312413E+01
O    2.0663037174990522E+00    6.7857336270141833E-01    1.1119675522046935E+01
O    3.2326135110467549E+00    4.8501036988865440E+00    1.2949268721235333E+01
O    3.4698174594054794E+00    7.5615045208605176E+00    9.1907281976107313E+00
O    3.4698173024717187E+00    4.9530877093622525E+00    9.1907281360850117E+00
O    1.8290996101126735E+00    7.8155717194670771E-01    1.4878215875647857E+01
O    4.6884525380458975E+00    3.4845349827622192E+00    1.0937479895111169E+01
O    4.6884525422509178E+00    6.8699598786610794E-01    1.0937479938422468E+01
O    6.1046462425785775E-01    4.8585264202141119E+00    1.3131464061656525E+01
Al    7.5481833976556594E+00    6.2572961172186892E+00    9.0311813580740168E+00
Al    1.0230633927922135E+01    2.0857654565274872E+00    1.2026900726265902E+01
Al    1.0305184239701610E+01    6.2572958696472334E+00    9.0291334845249054E+00
Al    8.8141254506960749E+00    6.2572958781106944E+00    1.4004200143261263E+01
Al    7.4436128048389776E+00    6.2927769685065116E-01    1.2944138195354466E+01
Al    6.0367916888887638E+00    4.8281395956264888E+00    1.4945181180176759E+01
O    1.0276869709159131E+01    6.2572960110880960E+00    1.5055988352005331E+01
O    8.7985256631344200E+00    2.0857653982390021E+00    1.3160567117668945E+01
O    7.3950481274023634E+00    6.2572959676282602E+00    1.5158586608712181E+01
O    6.1486643302426316E+00    2.0857654348072052E+00    1.3061257767503760E+01
O    1.0302359599391504E+01    3.3875331043728618E+00    1.5229048233700464E+01
O    8.7735530494696583E+00    7.6644883131674568E+00    1.2949268723867885E+01
O    7.3700390925606856E+00    3.3899736705591237E+00    1.4878215819168890E+01
O    6.1514039617932115E+00    7.6560656940710690E+00    1.3131463996583840E+01
Al    8.8326124206732324E+00    2.0857653878019717E+00    1.5037762502640911E+01
Al    6.1501618384089243E+00    6.2572959181470145E+00    1.2042043310003898E+01
Al    6.0756114716923211E+00    2.0857654273136119E+00    1.5039810316949978E+01
Al    7.5666702598191558E+00    2.0857654023833296E+00    1.0064743804655523E+01
Al    8.9371829756628749E+00    4.8008081215999034E+00    1.1124805901431285E+01
Al    8.9371832293947104E+00    7.7137843407500348E+00    1.1124805928131039E+01
Al    7.4436128358283788E+00    3.5422531656602692E+00    1.2944138140593328E+01
Al    1.0344004064187329E+01    6.5660921169829045E-01    9.1237626393349878E+00
Al    1.0344004114823800E+01    3.5149215868021693E+00    9.1237625821541553E+00
Al    6.0367915114149389E+00    7.6864525881768335E+00    1.4945181110950578E+01
O    6.1039261418217858E+00    2.0857654137605319E+00    9.0129554573849298E+00
O    7.5822700929130065E+00    6.2572960220099523E+00    1.0908376931418617E+01
O    8.9857475283805464E+00    2.0857654083132586E+00    8.9103571005561566E+00
O    1.0232131426271440E+01    6.2572960119663454E+00    1.1007686285488864E+01
O    6.0784363268419996E+00    7.5590637550793929E+00    8.8398955333051710E+00
O    6.0784362362795354E+00    4.9555282703812811E+00    8.8398955474071048E+00
O    1.0302359563363659E+01    7.8399774495436358E-01    1.5229048220108560E+01
O    7.6072430932960016E+00    3.4929575008207583E+00    1.1119675402447697E+01
O    7.6072430609088224E+00    6.7857334822149717E-01    1.1119675462927567E+01
O    8.7735528885796956E+00    4.8501036867913196E+00    1.2949268668381917E+01
O    9.0107568392680193E+00    7.5615044852961448E+00    9.1907281291978933E+00
O    9.0107566884729025E+00    4.9530876860557553E+00    9.1907280603085724E+00
O    7.3700390631896795E+00    7.8155717332916941E-01    1.4878215882196690E+01
O    1.0229391895266755E+01    3.4845349391338050E+00    1.0937479814512704E+01
O    1.0229391892014288E+01    6.8699596831156162E-01    1.0937479866122951E+01
O    6.1514040671195716E+00    4.8585263881779097E+00    1.3131464085446687E+01
Al    2.0072441939843131E+00    1.4600357488036533E+01    9.0311814983836491E+00
Al    4.6896948255064261E+00    1.0428827054842321E+01    1.2026900770479928E+01
Al    4.7642450636005513E+00    1.4600357452959532E+01    9.0291336466634160E+00
Al    3.2731862394980897E+00    1.4600357491298668E+01    1.4004200323475775E+01
Al    1.9026735456607369E+00    8.9723385975630343E+00    1.2944138234384299E+01
Al    4.9585223959686697E-01    1.3171201257728718E+01    1.4945181169990699E+01
O    4.7359304642539755E+00    1.4600357504776380E+01    1.5055988459693568E+01
O    3.2575865261838466E+00    1.0428826866093718E+01    1.3160567142168393E+01
O    1.8541088572950830E+00    1.4600357490024916E+01    1.5158586669769726E+01
O    6.0772514257549770E-01    1.0428826934356360E+01    1.3061257729228526E+01
O    4.7614203276188647E+00    1.1730594729544386E+01    1.5229048265133889E+01
O    3.2326138088096532E+00    1.6007549616754105E+01    1.2949268810339156E+01
O    1.8290998807629368E+00    1.1733035269416650E+01    1.4878215852682899E+01
O    6.1046486964389812E-01    1.5999126976978292E+01    1.3131464123340361E+01
Al    3.2916732570361242E+00    1.0428826905928942E+01    1.5037762500216513E+01
Al    6.0922263845328906E-01    1.4600357513219770E+01    1.2042043337319328E+01
Al    5.3467225716941369E-01    1.0428827064070102E+01    1.5039810286650408E+01
Al    2.0257310576329717E+00    1.0428826972465750E+01    1.0064743941412141E+01
Al    3.3962439107905777E+00    1.3143869707366326E+01    1.1124806088959279E+01
Al    3.3962439926596737E+00    1.6056845263589526E+01    1.1124806118680352E+01
Al    1.9026737204132909E+00    1.1885314829948305E+01    1.2944138272631648E+01
Al    4.8030651845953347E+00    8.9996703621759018E+00    9.1237627671162542E+00
Al    4.8030648867173769E+00    1.1857983168741935E+01    9.1237626754005934E+00
Al    4.9585225191984694E-01    1.6029513771870267E+01    1.4945181157017521E+01
O    5.6298688135108355E-01    1.0428826820652167E+01    9.0129555340361982E+00
O    2.0413309123971057E+00    1.4600357459582973E+01    1.0908377048080935E+01
O    3.4448083859273906E+00    1.0428826852107136E+01    8.9103572787695757E+00
O    4.6911922668980157E+00    1.4600357471795320E+01    1.1007686463178462E+01
O    5.3749694553278216E-01    1.5902125080871116E+01    8.8398955964069756E+00
O    5.3749690469556144E-01    1.3298589771217971E+01    8.8398955743809573E+00
O    4.7614202682612881E+00    9.1270591399167937E+00    1.5229048287167849E+01
O    2.0663040085737467E+00    1.1836019095104589E+01    1.1119675516626197E+01
O    2.0663038211821587E+00    9.0216345997589986E+00    1.1119675427550165E+01
O    3.2326137572100788E+00    1.3193165324910657E+01    1.2949268810358914E+01
O    3.4698175866773395E+00    1.5904565727978884E+01    9.1907282369558523E+00
O    3.4698175332848495E+00    1.3296149219473632E+01    9.1907282251998463E+00
O    1.8290997551222372E+00    9.1246184621146753E+00    1.4878215776601706E+01
O    4.6884528227172311E+00    1.1827596546038082E+01    1.0937479910423887E+01
O    4.6884529442601766E+00    9.0300572325530215E+00    1.0937480020631453E+01
O    6.1046486309817150E-01    1.3201588000646858E+01    1.3131464119090767E+01
Al    7.5481835707502105E+00    1.4600357502092253E+01    9.0311814603910694E+00
Al    1.0230634244508151E+01    1.0428827019510523E+01    1.2026900699836075E+01
Al    1.0305184442028922E+01    1.4600357426939970E+01    9.0291335308878846E+00
Al    8.8141255970048711E+00    1.4600357479904238E+01    1.4004200258554542E+01
Al    7.4436129460201119E+00    8.9723385996337637E+00    1.2944138190664150E+01
Al    6.0367918925844197E+00    1.3171201246983935E+01    1.4945181224967047E+01
O    1.0276869871208840E+01    1.4600357501331375E+01    1.5055988410138967E+01
O    8.7985259288600624E+00    1.0428826839993860E+01    1.3160567094331588E+01
O    7.3950483312833466E+00    1.4600357480884568E+01    1.5158586698676444E+01
O    6.1486646315817035E+00    1.0428826925890057E+01    1.3061257751246462E+01
O    1.0302359804910235E+01    1.1730594687055177E+01    1.5229048265313526E+01
O    8.7735531797000146E+00    1.6007549614348711E+01    1.2949268755457668E+01
O    7.3700393531097337E+00    1.1733035247862558E+01    1.4878215856904362E+01
O    6.1514043431446623E+00    1.5999126957613088E+01    1.3131464166319743E+01
Al    8.8326126254361395E+00    1.0428826830009074E+01    1.5037762507797023E+01
Al    6.1501621457970037E+00    1.4600357496097857E+01    1.2042043395125724E+01
Al    6.0756117154080753E+00    1.0428827066951907E+01    1.5039810330383084E+01
Al    7.5666704754761387E+00    1.0428826947766055E+01    1.0064743904988696E+01
Al    8.9371832661295993E+00    1.3143869690181745E+01    1.1124805983707025E+01
Al    8.9371833339079778E+00    1.6056845252967584E+01    1.1124806038375901E+01
Al    7.4436131273175734E+00    1.1885314776187101E+01    1.2944138207869825E+01
Al    1.0344004565061876E+01    8.9996702619660898E+00    9.1237626963777831E+00
Al    1.0344004245185875E+01    1.1857983122513161E+01    9.1237625679034942E+00
Al    6.0367918894149879E+00    1.6029513769807398E+01    1.4945181213310871E+01
O    6.1039263823567271E+00    1.0428826851251548E+01    9.0129555016402225E+00
O    7.5822703312995801E+00    1.4600357448490886E+01    1.0908377014697859E+01
O    8.9857477775880721E+00    1.0428826803882673E+01    8.9103571923759244E+00
O    1.0232131684652273E+01    1.4600357460916369E+01    1.1007686354626864E+01
O    6.0784364905418089E+00    1.5902125093562931E+01    8.8398956169506366E+00
O    6.0784364472687473E+00    1.3298589779891865E+01    8.8398956071265768E+00
O    1.0302359742468070E+01    9.1270590978048602E+00    1.5229048270336191E+01
O    7.6072433621112969E+00    1.1836019081746342E+01    1.1119675455859864E+01
O    7.6072431875064392E+00    9.0216345762381582E+00    1.1119675385760852E+01
O    8.7735531371569664E+00    1.3193165313107215E+01    1.2949268740912762E+01
O    9.0107569563109013E+00    1.5904565711486761E+01    9.1907281540834340E+00
O    9.0107569034453459E+00    1.3296149199639331E+01    9.1907281372871310E+00
O    7.3700392037115385E+00    9.1246184407403383E+00    1.4878215776775221E+01
O    1.0229392160727491E+01    1.1827596494722538E+01    1.0937479818273623E+01
O    1.0229392302784607E+01    9.0300571955748410E+00    1.0937479956027806E+01
O    6.1514043336218363E+00    1.3201587980485559E+01    1.3131464154635962E+01
     &END COORD
     &KIND Al
       BASIS_SET DZVP-MOLOPT-SR-GTH-q3
       POTENTIAL GTH-PBE-q3
       &POTENTIAL
 2 1
  0.4500000000000000E+00 1 -0.7554761260000000E+01
 2
  0.4874352900000000E+00 2  0.6959938320000000E+01 -0.1888835840000000E+01
  0.2438476590000000E+01
  0.5621894900000000E+00 1  0.1865298570000000E+01
         # Potential name:  GTH-PBE-Q3  for symbol:  AL
         # Potential read from the potential filename: ../../cp2k-data/GTH_POTENTIALS
       &END POTENTIAL
     &END KIND
     &KIND O
       BASIS_SET DZVP-MOLOPT-SR-GTH-q6
       POTENTIAL GTH-PBE-q6
       &POTENTIAL
 2 4
  0.2445543000000000E+00 2 -0.1666721480000000E+02  0.2487311320000000E+01
 2
  0.2209559200000000E+00 1  0.1833745811000000E+02
  0.2113324700000000E+00 0
         # Potential name:  GTH-PBE-Q6  for symbol:  O
         # Potential read from the potential filename: ../../cp2k-data/GTH_POTENTIALS
       &END POTENTIAL
     &END KIND
     &TOPOLOGY
       COORD_FILE_NAME alumina_unrlxd.xyz
       COORD_FILE_FORMAT  XYZ
       NUMBER_OF_ATOMS  320
       MULTIPLE_UNIT_CELL  1 1 1
     &END TOPOLOGY
   &END SUBSYS
 &END FORCE_EVAL
