%nprocshared=16
%mem=2000MW
%chk=dimersiohscn.chk
# opt=(modredundant,maxcycle=1600) wb97xd/6-311++g(d,p)
scrf=(cpcm,solvent=water) nosymm scf=maxcycle=800

dimersiohscn

-1 1
 Si                 0.53175776    0.55391432    0.00000000
 O                  0.67511976    2.09248132   -0.54481100
 O                  0.35901876   -0.51181468   -1.29006400
 O                  1.85472576    0.15763932    0.85586400
 O                 -0.83823124    0.40257732    0.91735700
 Ca                 2.55959876    3.41879932    0.02756400
 O                  2.02485976    3.15815232   -2.41662300
 O                  0.29696376    4.36202532    0.54372000
 O                  2.46184076    2.27403332    2.15967000
 O                  3.80675776    1.36868232   -0.27250900
 H                  0.08394676    3.45137132    0.19861800
 H                 -0.08109924    4.43395732    1.42147600
 H                  1.36240576    2.56212132   -1.96838600
 H                  2.52803276    2.62300132   -3.03194600
 H                  2.17530476    1.36093732    1.80718900
 H                  1.85440076    2.51463232    2.86075000
 H                  3.10963476    0.73144732    0.11068300
 H                  4.07311376    1.02522032   -1.12634400
 H                 -0.60450024   -0.53489268   -1.46387600
 Si                -2.52674724    0.33032332    0.73504000
 O                 -3.73690024   -0.80521068    0.83482000
 O                 -2.25149424   -0.05979468   -1.03113200
 O                 -3.12822324    1.89786032    0.49761400
 O                 -2.57472324    0.41092632    2.59847400
 Ca                -5.93975124   -0.25170768    1.51030100
 O                 -5.65192524   -1.83290968   -0.45342400
 O                 -4.65165324   -2.15060668    2.79902300
 O                 -4.92876224    0.77455532    3.45571100
 O                 -5.86347324    1.63232832    0.37586800
 H                 -4.03813724   -1.72653568    2.12734500
 H                 -4.38697424   -1.78871768    3.64728700
 H                 -4.72634724   -1.53191268   -0.20174100
 H                 -5.82011924   -1.53143768   -1.34754200
 H                 -5.10826324    1.69868332    3.63508400
 H                 -3.94480024    0.71093132    3.19560600
 H                 -4.10907024    1.89791332    0.41601000
 H                 -6.40581324    2.34323632    0.04102000
 H                 -3.04553524   -0.44686568   -1.39640000
 H                 -1.79908624    0.87375532    2.91605000

B 20 24 S 16 0.020000

