%nprocshared=32
%mem=2000MW
%chk=pf5scn.chk
# opt=(modredundant,maxcycle=1600) b3lyp/6-311++g(d,p)
scrf=(cpcm,solvent=water) nosymm scf=maxcycle=800

pf5scn

0 1
 P                 -0.86642594   -0.07220216    0.00000000
 F                 -0.86772394   -0.07216216    1.60948900
 F                  0.70187006   -0.07219916    0.00011100
 F                 -1.64744494   -1.43219216   -0.00002400
 F                 -1.64743994    1.28778684    0.00000300
 F                 -0.86784294   -0.07218516   -1.60949400

A 4 1 3 S 20 3.000000

