 # Version information for this restart file 
 # current date 2024-11-08 11:47:39.878
 # current working dir /scratch4/nmitra1/alumina_cp2k/cellopt_dftd3/222
 # Program compiled at                              Wed May 17 21:13:02 EDT 2023
 # Program compiled on                                                      c718
 # Program compiled for                            linux-centos8-cascadelake-gcc
 # Source code revision number                                       git:a8a26f8
 &GLOBAL
   PRINT_LEVEL  MEDIUM
   PROJECT_NAME Alumina_dftd32
   RUN_TYPE  CELL_OPT
 &END GLOBAL
 &MOTION
   &CELL_OPT
     OPTIMIZER  BFGS
     MAX_FORCE     1.9000000000000001E-05
     STEP_START_VAL  27
     TYPE  DIRECT_CELL_OPT
     &PRINT
       &CELL  ON
       &END CELL
     &END PRINT
   &END CELL_OPT
 &END MOTION
 &FORCE_EVAL
   METHOD  QS
   STRESS_TENSOR  ANALYTICAL
   &DFT
     BASIS_SET_FILE_NAME ../../cp2k-data/BASIS_MOLOPT
     POTENTIAL_FILE_NAME ../../cp2k-data/GTH_POTENTIALS
     MULTIPLICITY  1
     CHARGE  0
     &SCF
       MAX_SCF  200
       EPS_SCF     1.0000000000000000E-08
       SCF_GUESS  ATOMIC
       &OT  T
         MINIMIZER  CG
       &END OT
       &OUTER_SCF  T
         EPS_SCF     1.0000000000000000E-08
         MAX_SCF  20
       &END OUTER_SCF
       &MIXING  T
         METHOD  BROYDEN_MIXING
         ALPHA     2.9999999999999999E-01
         NBUFFER  15
       &END MIXING
     &END SCF
     &QS
       EPS_DEFAULT     9.9999999999999998E-13
       EXTRAPOLATION  USE_PREV_P
       METHOD  GPW
     &END QS
     &MGRID
       CUTOFF     1.0000000000000000E+03
       REL_CUTOFF     7.0000000000000000E+01
     &END MGRID
     &XC
       DENSITY_CUTOFF     1.0000000000000000E-10
       GRADIENT_CUTOFF     1.0000000000000000E-10
       TAU_CUTOFF     1.0000000000000000E-10
       &XC_FUNCTIONAL  NO_SHORTCUT
         &PBE  T
         &END PBE
       &END XC_FUNCTIONAL
       &VDW_POTENTIAL
         POTENTIAL_TYPE  PAIR_POTENTIAL
         &PAIR_POTENTIAL
           R_CUTOFF     2.0000000000000004E+01
           TYPE  DFTD3
           PARAMETER_FILE_NAME ../../cp2k-data/dftd3.dat
           REFERENCE_FUNCTIONAL PBE
           CALCULATE_C9_TERM  T
         &END PAIR_POTENTIAL
       &END VDW_POTENTIAL
     &END XC
     &POISSON
       POISSON_SOLVER  PERIODIC
       PERIODIC  XYZ
     &END POISSON
   &END DFT
   &SUBSYS
     &CELL
       A     1.1106298107590158E+01    0.0000000000000000E+00    0.0000000000000000E+00
       B     2.0988294276936082E-07    1.6722741265964839E+01    0.0000000000000000E+00
       C    -1.5045834031632146E-01    3.7859476656745045E-08    1.6062613117344387E+01
       MULTIPLE_UNIT_CELL  1 1 1
     &END CELL
     &COORD
Al    2.0932743150341748E+00    6.2710280603046566E+00    1.0091673941771824E+00
Al    4.7842535230184930E+00    2.0903428103392372E+00    4.0068266126948533E+00
Al    4.8563335112490149E+00    6.2710279088979135E+00    1.0081456210505977E+00
Al    3.3658939337022606E+00    6.2710279876842314E+00    5.9860097679956938E+00
Al    1.9914358111181536E+00    6.3037079544988173E-01    4.9266786855806641E+00
Al    5.8248982253120185E-01    4.8400825981389346E+00    6.9296162383452655E+00
O    4.8317265295402017E+00    6.2710280989917555E+00    7.0380602135123356E+00
O    3.3510656190764387E+00    2.0903427456376895E+00    5.1434036069824467E+00
O    1.9454356485664406E+00    6.2710281174478553E+00    7.1431248006524415E+00
O    6.9310348250618581E-01    2.0903427620909678E+00    5.0410362541647311E+00
O    4.8592481751041774E+00    3.3938892126950537E+00    7.2146480812527267E+00
O    3.3227492442295650E+00    7.6807106722022223E+00    4.9312779145666132E+00
O    1.9172218944821495E+00    3.3960653963763288E+00    6.8612828950387765E+00
O    6.9786220724444470E-01    7.6724484957842716E+00    5.1139365537848649E+00
Al    3.3846494525699695E+00    2.0903427189591901E+00    7.0221401202578422E+00
Al    6.9367013958938217E-01    6.2710279753880895E+00    4.0244806426637432E+00
Al    6.2159034007936509E-01    2.0903427875939249E+00    7.0231619134548771E+00
Al    2.1120299030006238E+00    2.0903427378123367E+00    2.0452974637992920E+00
Al    3.4864879485467588E+00    4.8110560389728541E+00    3.1046285304064876E+00
Al    3.4864881044682345E+00    7.7310005974915459E+00    3.1046285054845968E+00
Al    1.9914358453855017E+00    3.5503146982961629E+00    4.9266786691578730E+00
Al    4.8954340632900628E+00    6.5939725143259187E-01    1.1016914117386609E+00
Al    4.8954340272940486E+00    3.5212882486005368E+00    1.1016913843686011E+00
Al    5.8248948745193485E-01    7.7019738812537772E+00    6.9296161325489196E+00
O    6.4619723545704877E-01    2.0903427085426487E+00    9.9324737793266282E-01
O    2.1268581377430955E+00    6.2710280619039933E+00    2.8879037540598045E+00
O    3.5324882202161363E+00    2.0903427598908570E+00    8.8818288918339050E-01
O    4.7848202797480353E+00    6.2710280665105813E+00    2.9902710395708132E+00
O    6.1867561135269189E-01    7.5745745518761858E+00    8.1665957996602745E-01
O    6.1867557871920387E-01    4.9674814993302592E+00    8.1665959794272092E-01
O    4.8592481425939740E+00    7.8679639094341247E-01    7.2146480833796343E+00
O    2.1551749189773237E+00    3.5000251418569013E+00    3.1000293534267147E+00
O    2.1551748690961876E+00    6.8066037229824061E-01    3.1000293614101602E+00
O    3.3227491231666275E+00    4.8613455083043391E+00    4.9312778645516238E+00
O    3.5607020662764617E+00    7.5767509040119441E+00    1.1700246597492567E+00
O    3.5607019534832278E+00    4.9653053497865134E+00    1.1700245746312492E+00
O    1.9172218605999753E+00    7.8462013394770624E-01    6.8612828997333875E+00
O    4.7800616635055251E+00    3.4917631356469134E+00    2.9173707833459495E+00
O    4.7800616624583112E+00    6.8892249622011470E-01    2.9173708035164756E+00
O    6.9786240273548039E-01    4.8696077370979349E+00    5.1139366727518363E+00
Al    7.6464232214594592E+00    6.2710279672860603E+00    1.0091674582238674E+00
Al    1.0337402587315013E+01    2.0903427693156424E+00    4.0068266195303162E+00
Al    1.0409482546641909E+01    6.2710278574460423E+00    1.0081456297030351E+00
Al    8.9190428890198508E+00    6.2710279431788951E+00    5.9860097375997814E+00
Al    7.5445847473525625E+00    6.3037077444524914E-01    4.9266785916577032E+00
Al    6.1356388473118288E+00    4.8400825630735538E+00    6.9296162032626549E+00
O    1.0384875560153564E+01    6.2710280953022268E+00    7.0380601566298386E+00
O    8.9042145903514598E+00    2.0903427229933049E+00    5.1434035305279329E+00
O    7.4985846210344169E+00    6.2710280719121183E+00    7.1431247580314272E+00
O    6.2462524615191901E+00    2.0903427506175993E+00    5.0410361991588095E+00
O    1.0412397252030635E+01    3.3938891897960173E+00    7.2146480632987648E+00
O    8.8758981980338998E+00    7.6807106388688844E+00    4.9312778938159214E+00
O    7.4703708475918589E+00    3.3960653766388216E+00    6.8612828181314418E+00
O    6.2510111692145092E+00    7.6724484768367471E+00    5.1139365305820386E+00
Al    8.9377983783194743E+00    2.0903427160682071E+00    7.0221400451167124E+00
Al    6.2468191105545365E+00    6.2710279557333939E+00    4.0244806373175877E+00
Al    6.1747392584247223E+00    2.0903427972850213E+00    7.0231618362335064E+00
Al    7.6651788520235842E+00    2.0903427040362250E+00    2.0452974076950685E+00
Al    9.0396368870935948E+00    4.8110559646652709E+00    3.1046284613510000E+00
Al    9.0396371086310268E+00    7.7310005467256397E+00    3.1046284857609958E+00
Al    7.5445847697893775E+00    3.5503146745500764E+00    4.9266785704430873E+00
Al    1.0448583207364088E+01    6.5939718941877568E-01    1.1016914255504688E+00
Al    1.0448583189582362E+01    3.5212881765329911E+00    1.1016914183494064E+00
Al    6.1356385163035441E+00    7.7019738368927708E+00    6.9296161022545419E+00
O    6.1993462384857283E+00    2.0903427392679577E+00    9.9324733879240124E-01
O    7.6800071107612240E+00    6.2710280114484274E+00    2.8879037674029080E+00
O    9.0856372455334995E+00    2.0903427196785223E+00    8.8818288797020661E-01
O    1.0337969334840965E+01    6.2710280272021093E+00    2.9902710224942770E+00
O    6.1718246984334462E+00    7.5745745586658613E+00    8.1665961626717043E-01
O    6.1718246213838697E+00    4.9674815170109676E+00    8.1665964329090113E-01
O    1.0412397216931812E+01    7.8679637170034478E-01    7.2146480519246055E+00
O    7.7083238416403592E+00    3.5000251153737252E+00    3.1000292804645952E+00
O    7.7083238182437936E+00    6.8066033878309329E-01    3.1000293015839024E+00
O    8.8758980493616590E+00    4.8613454766854005E+00    4.9312778131935513E+00
O    9.1138510570910434E+00    7.5767508400725747E+00    1.1700246626473139E+00
O    9.1138509702926385E+00    4.9653053046508191E+00    1.1700245817553316E+00
O    7.4703708124403123E+00    7.8462014522989199E-01    6.8612828279443105E+00
O    1.0333210666488714E+01    3.4917630912144260E+00    2.9173707972121137E+00
O    1.0333210692720222E+01    6.8892244998030017E-01    2.9173708136651433E+00
O    6.2510113262450373E+00    4.8696077031293976E+00    5.1139366328107494E+00
Al    2.0932744301277606E+00    1.4632399013075613E+01    1.0091673974982918E+00
Al    4.7842537848694002E+00    1.0451713849681717E+01    4.0068266828480716E+00
Al    4.8563336477582926E+00    1.4632398964428388E+01    1.0081455972694360E+00
Al    3.3658940606141794E+00    1.4632398984049120E+01    5.9860098384197755E+00
Al    1.9914358507604917E+00    8.9917411486120375E+00    4.9266787670207464E+00
Al    5.8248988516172695E-01    1.3201453593794662E+01    6.9296162358563969E+00
O    4.8317266768188487E+00    1.4632398971384578E+01    7.0380602519990667E+00
O    3.3510658091072099E+00    1.0451713600474479E+01    5.1434036792956883E+00
O    1.9454358107568543E+00    1.4632398982286039E+01    7.1431248853523543E+00
O    6.9310368208033302E-01    1.0451713655799757E+01    5.0410363179218045E+00
O    4.8592483314130037E+00    1.1755260147438266E+01    7.2146481445030020E+00
O    3.3227493306239717E+00    1.6042081372365519E+01    4.9312778570985074E+00
O    1.9172220660254276E+00    1.1757436345301533E+01    6.8612829755590949E+00
O    6.9786255647984274E-01    1.6033819153073772E+01    5.1139366515030300E+00
Al    3.3846495900416818E+00    1.0451713503448529E+01    7.0221402197907077E+00
Al    6.9367036605952859E-01    1.4632398943288464E+01    4.0244806315099062E+00
Al    6.2159051368962370E-01    1.0451713789643652E+01    7.0231620014874281E+00
Al    2.1120299979391293E+00    1.0451713766346652E+01    2.0452976024320053E+00
Al    3.4864881217653600E+00    1.3172427080659721E+01    3.1046285622155354E+00
Al    3.4864882045750472E+00    1.6092370940998130E+01    3.1046285356597951E+00
Al    1.9914360885794034E+00    1.1911685700681922E+01    4.9266787803856849E+00
Al    4.8954344054938126E+00    9.0207678735610681E+00    1.1016914903811630E+00
Al    4.8954341614875032E+00    1.1882659320793467E+01    1.1016914200975343E+00
Al    5.8248986919437429E-01    1.6063344394562062E+01    6.9296162032928210E+00
O    6.4619735194505756E-01    1.0451713641155886E+01    9.9324744253558339E-01
O    2.1268583160676156E+00    1.4632398957132242E+01    2.8879037367886653E+00
O    3.5324883615184568E+00    1.0451713693933009E+01    8.8818297676967783E-01
O    4.7848204968281953E+00    1.4632398981958390E+01    2.9902710278734084E+00
O    6.1867569112555276E-01    1.5935945343521098E+01    8.1665962234530043E-01
O    6.1867570581262055E-01    1.3328852518786988E+01    8.1665962957322269E-01
O    4.8592482700735111E+00    9.1481671663210378E+00    7.2146481752310070E+00
O    2.1551750811822763E+00    1.1861396187674368E+01    3.1000294405949180E+00
O    2.1551749047264988E+00    9.0420310840159210E+00    3.1000293762557285E+00
O    3.3227493084034170E+00    1.3222716542446321E+01    4.9312778996773741E+00
O    3.5607021367274352E+00    1.5938121624203053E+01    1.1700245777787646E+00
O    3.5607021123033382E+00    1.3326676361507277E+01    1.1700245943899468E+00
O    1.9172219247898126E+00    9.1459907947871955E+00    6.8612829018177077E+00
O    4.7800618334420033E+00    1.1853134171087799E+01    2.9173708322190195E+00
O    4.7800619589386883E+00    9.0502932125845899E+00    2.9173709509493055E+00
O    6.9786259527732519E-01    1.3230978716073457E+01    5.1139366926642857E+00
Al    7.6464233464436369E+00    1.4632398972435658E+01    1.0091674730993878E+00
Al    1.0337402812139834E+01    1.0451713792793816E+01    4.0068266719141414E+00
Al    1.0409482668363383E+01    1.4632398914107007E+01    1.0081456259164117E+00
Al    8.9190430007971244E+00    1.4632398949204530E+01    5.9860097919445101E+00
Al    7.5445848175392882E+00    8.9917411107137220E+00    4.9266786996537402E+00
Al    6.1356389344709665E+00    1.3201453574221466E+01    6.9296162123626219E+00
O    1.0384875692418900E+01    1.4632398954924858E+01    7.0380601809663608E+00
O    8.9042147771801634E+00    1.0451713562048887E+01    5.1434036110731478E+00
O    7.4985847838860558E+00    1.4632398962246228E+01    7.1431248372420892E+00
O    6.2462526827334779E+00    1.0451713643915708E+01    5.0410362818131951E+00
O    1.0412397388251366E+01    1.1755260106440076E+01    7.2146481175499177E+00
O    8.8758982618697591E+00    1.6042081348322277E+01    4.9312778191060911E+00
O    7.4703710345839589E+00    1.1757436322301789E+01    6.8612829105087503E+00
O    6.2510115094458705E+00    1.6033819151557324E+01    5.1139366204618701E+00
Al    8.9377985088722003E+00    1.0451713449929120E+01    7.0221401545914048E+00
Al    6.2468193622139054E+00    1.4632398930701079E+01    4.0244806354331804E+00
Al    6.1747394483427778E+00    1.0451713799744704E+01    7.0231619275132386E+00
Al    7.6651789723815726E+00    1.0451713730861146E+01    2.0452975734819256E+00
Al    9.0396370491285261E+00    1.3172427011626315E+01    3.1046284892713403E+00
Al    9.0396371859797409E+00    1.6092370914692530E+01    3.1046284924196685E+00
Al    7.5445850272941568E+00    1.1911685674277221E+01    4.9266787012858879E+00
Al    1.0448583437349322E+01    9.0207677356473344E+00    1.1016914691688156E+00
Al    1.0448583289651156E+01    1.1882659234355700E+01    1.1016914426360098E+00
Al    6.1356389113096315E+00    1.6063344414376218E+01    6.9296161667406366E+00
O    6.1993463894759175E+00    1.0451713688818623E+01    9.9324742149307066E-01
O    7.6800072926176925E+00    1.4632398917054472E+01    2.8879037530423837E+00
O    9.0856373674077080E+00    1.0451713626754362E+01    8.8818296460193258E-01
O    1.0337969538514852E+01    1.4632398942910131E+01    2.9902710064619948E+00
O    6.1718248064452554E+00    1.5935945393706907E+01    8.1665967660500294E-01
O    6.1718247754144828E+00    1.3328852550896734E+01    8.1665968543023082E-01
O    1.0412397317281355E+01    9.1481671070655253E+00    7.2146481342622204E+00
O    7.7083240015465586E+00    1.1861396160571344E+01    3.1000293837197623E+00
O    7.7083238684231432E+00    9.0420310397545247E+00    3.1000293331089419E+00
O    8.8758982400126261E+00    1.3222716511575355E+01    4.9312778463198521E+00
O    9.1138511309401107E+00    1.5938121581518439E+01    1.1700245869863999E+00
O    9.1138511142736149E+00    1.3326676319118533E+01    1.1700246022285898E+00
O    7.4703708874610113E+00    9.1459907878101365E+00    6.8612828444403346E+00
O    1.0333210809186971E+01    1.1853134114793910E+01    2.9173708345089291E+00
O    1.0333210965391379E+01    9.0502931527669990E+00    2.9173709431101447E+00
O    6.2510115377502764E+00    1.3230978690015936E+01    5.1139366641390458E+00
Al    2.0180452544503562E+00    6.2710282818397536E+00    9.0404742031652372E+00
Al    4.7090244584154188E+00    2.0903428644545587E+00    1.2038133755319727E+01
Al    4.7811043450772006E+00    6.2710280013562425E+00    9.0394524984788198E+00
Al    3.2906647957271753E+00    6.2710279824247603E+00    1.4017316785996863E+01
Al    1.9162067359703885E+00    6.3037083469380439E-01    1.2957985926920506E+01
Al    5.0726044293989636E-01    4.8400824726374125E+00    1.4960922947841432E+01
O    4.7564974273901841E+00    6.2710280747307419E+00    1.5069367019640882E+01
O    3.2758365152417275E+00    2.0903427746327936E+00    1.3174710690547991E+01
O    1.8702064376765408E+00    6.2710280821819371E+00    1.5174431474621501E+01
O    6.1787430180671321E-01    2.0903427934071694E+00    1.3072343356535749E+01
O    4.7840189922454375E+00    3.3938892361840329E+00    1.5245954788410851E+01
O    3.2475201547265629E+00    7.6807107228191454E+00    1.2962585027492430E+01
O    1.8419927000486189E+00    3.3960654165590545E+00    1.4892589805550564E+01
O    6.2263306542109131E-01    7.6724485669370139E+00    1.3145243438319998E+01
Al    3.3094204103478582E+00    2.0903427502209828E+00    1.5053446958771659E+01
Al    6.1844100126138213E-01    6.2710280036068786E+00    1.2055787655389485E+01
Al    5.4636111833733081E-01    2.0903427857520676E+00    1.5054468714688714E+01
Al    2.0368006872820956E+00    2.0903427800063565E+00    1.0076604558175358E+01
Al    3.4112588468793898E+00    4.8110560888484413E+00    1.1135935649623823E+01
Al    3.4112590441369135E+00    7.7310006536110469E+00    1.1135935653972233E+01
Al    1.9162067601088617E+00    3.5503147215037232E+00    1.2957985880097485E+01
Al    4.8202048403208408E+00    6.5939740213021414E-01    9.1329982752626755E+00
Al    4.8202048735148386E+00    3.5212882425737853E+00    9.1329981812485563E+00
Al    5.0726034472514470E-01    7.7019739472789048E+00    1.4960922888204998E+01
O    5.7096804536783596E-01    2.0903427506854606E+00    9.0245542003918899E+00
O    2.0516290290056851E+00    6.2710281465491899E+00    1.0919210757046574E+01
O    3.4572589674997070E+00    2.0903427969413184E+00    8.9194896396671997E+00
O    4.7095911573208635E+00    6.2710281254841149E+00    1.1021578113379444E+01
O    5.4344642180656100E-01    7.5745745942518852E+00    8.8479662757139135E+00
O    5.4344635418019860E-01    4.9674816294941673E+00    8.8479662806917894E+00
O    4.7840189669706259E+00    7.8679637333942520E-01    1.5245954783344951E+01
O    2.0799457919923152E+00    3.5000251595867100E+00    1.1131336526060652E+01
O    2.0799457904486869E+00    6.8066044187397601E-01    1.1131336578852807E+01
O    3.2475200307431669E+00    4.8613454974029251E+00    1.2962584977051675E+01
O    3.4854729490947221E+00    7.5767509891769400E+00    9.2013315654773731E+00
O    3.4854728029432036E+00    4.9653054588272507E+00    9.2013314895136844E+00
O    1.8419926695741651E+00    7.8462014622458220E-01    1.4892589829320809E+01
O    4.7048325039459513E+00    3.4917631348171612E+00    1.0948677749403986E+01
O    4.7048325541801335E+00    6.8892257747258656E-01    1.0948677825129270E+01
O    6.2263321507024649E-01    4.8696076967801369E+00    1.3145243548032626E+01
Al    7.5711941611603280E+00    6.2710281905851835E+00    9.0404741888058222E+00
Al    1.0262173455436434E+01    2.0903428208715393E+00    1.2038133695793405E+01
Al    1.0334253291154736E+01    6.2710279507121607E+00    9.0394523704865879E+00
Al    8.8438137384115052E+00    6.2710279441560539E+00    1.4017316752991164E+01
Al    7.4693557095731800E+00    6.3037083581065156E-01    1.2957985867812869E+01
Al    6.0604096400590510E+00    4.8400824349951836E+00    1.4960923015316077E+01
O    1.0309646433619980E+01    6.2710280755572576E+00    1.5069366958700462E+01
O    8.8289854902394715E+00    2.0903427506920620E+00    1.3174710653636641E+01
O    7.4233554562832964E+00    6.2710280345437370E+00    1.5174431501994322E+01
O    6.1710233438281730E+00    2.0903427823398921E+00    1.3072343383623410E+01
O    1.0337168048271529E+01    3.3938892123995816E+00    1.5245954787192417E+01
O    8.8006691166934399E+00    7.6807106858661980E+00    1.2962584994369600E+01
O    7.3951417209823891E+00    3.3960653998382697E+00    1.4892589818419680E+01
O    6.1757820900863143E+00    7.6724485408723853E+00    1.3145243475968474E+01
Al    8.8625693387715234E+00    2.0903427473635325E+00    1.5053446983546712E+01
Al    6.1715900276582110E+00    6.2710279777232047E+00    1.2055787707904814E+01
Al    6.0995101275074068E+00    2.0903427961416252E+00    1.5054468797268367E+01
Al    7.5899496592087337E+00    2.0903427479760368E+00    1.0076604515807251E+01
Al    8.9644077533161433E+00    4.8110560349001483E+00    1.1135935557933578E+01
Al    8.9644080187093085E+00    7.7310005882604873E+00    1.1135935602492921E+01
Al    7.4693557197178198E+00    3.5503146799854868E+00    1.2957985819787815E+01
Al    1.0373353801439036E+01    6.5939733655505828E-01    9.1329981830152356E+00
Al    1.0373353853919561E+01    3.5212881742196722E+00    9.1329981127648523E+00
Al    6.0604094575815068E+00    7.7019738947988738E+00    1.4960922922674818E+01
O    6.1241170922159149E+00    2.0903427810738480E+00    9.0245541693269473E+00
O    7.6047779985973758E+00    6.2710280919709502E+00    1.0919210741971328E+01
O    9.0104079279020954E+00    2.0903427574159505E+00    8.9194895520085851E+00
O    1.0262740157588951E+01    6.2710280856230138E+00    1.1021578028825086E+01
O    6.0965955328192623E+00    7.5745746051299330E+00    8.8479663030386764E+00
O    6.0965954245428415E+00    4.9674816443929233E+00    8.8479663108627253E+00
O    1.0337168018529079E+01    7.8679635341575793E-01    1.5245954769369124E+01
O    7.6330947007109886E+00    3.5000251309685937E+00    1.1131336469499674E+01
O    7.6330947233719471E+00    6.8066041050479398E-01    1.1131336530825786E+01
O    8.8006689739613204E+00    4.8613454680238677E+00    1.2962584923443462E+01
O    9.0386218837848098E+00    7.5767509314479202E+00    9.2013314988232970E+00
O    9.0386217525689165E+00    4.9653054101796208E+00    9.2013314194320870E+00
O    7.3951416917488455E+00    7.8462015431516507E-01    1.4892589847778156E+01
O    1.0257981414720282E+01    3.4917630769139274E+00    1.0948677681027952E+01
O    1.0257981488894609E+01    6.8892254221409610E-01    1.0948677748586846E+01
O    6.1757822224743224E+00    4.8696076723054427E+00    1.3145243590139703E+01
Al    2.0180453661655329E+00    1.4632399066194916E+01    9.0404743048558363E+00
Al    4.7090247133867731E+00    1.0451713864806786E+01    1.2038133739463634E+01
Al    4.7811045028961079E+00    1.4632398991804395E+01    9.0394525613578001E+00
Al    3.2906648972178272E+00    1.4632399004170974E+01    1.4017316938273867E+01
Al    1.9162067797496929E+00    8.9917412144579831E+00    1.2957985877770898E+01
Al    5.0726052228881269E-01    1.3201453561634693E+01    1.4960922975640932E+01
O    4.7564975551216238E+00    1.4632399020448052E+01    1.5069367098056587E+01
O    3.2758367021849311E+00    1.0451713669791413E+01    1.3174710669394898E+01
O    1.8702065458871608E+00    1.4632399012467820E+01    1.5174431547030903E+01
O    6.1787450338446925E-01    1.0451713722580099E+01    1.3072343332953276E+01
O    4.7840191545060877E+00    1.1755260265267905E+01    1.5245954832818756E+01
O    3.2475202363262330E+00    1.6042081438135593E+01    1.2962585089168078E+01
O    1.8419928630109572E+00    1.1757436430985962E+01    1.4892589836582427E+01
O    6.2263335752947635E-01    1.6033819258695271E+01    1.3145243584535994E+01
Al    3.3094205542283759E+00    1.0451713704950697E+01    1.5053446981452765E+01
Al    6.1844122287042680E-01    1.4632399001627009E+01    1.2055787721727116E+01
Al    5.4636127216951702E-01    1.0451713854395912E+01    1.5054468739279830E+01
Al    2.0368008179306214E+00    1.0451713791162623E+01    1.0076604626047155E+01
Al    3.4112590735510708E+00    1.3172427086175572E+01    1.1135935747720026E+01
Al    3.4112591480769523E+00    1.6092370978032832E+01    1.1135935817905141E+01
Al    1.9162069529916861E+00    1.1911685770772499E+01    1.2957985940805532E+01
Al    4.8202052810260092E+00    9.0207679616539895E+00    9.1329983216241768E+00
Al    4.8202049813159373E+00    1.1882659222578361E+01    9.1329981867885230E+00
Al    5.0726052912742436E-01    1.6063344511479819E+01    1.4960922950015217E+01
O    5.7096820089571731E-01    1.0451713614144678E+01    9.0245542290171556E+00
O    2.0516292108494900E+00    1.4632398995975070E+01    1.0919210844424839E+01
O    3.4572591440334710E+00    1.0451713664092811E+01    8.9194897231023713E+00
O    4.7095913806779048E+00    1.4632399005270644E+01    1.1021578203672117E+01
O    5.4344649363622133E-01    1.5935945329368970E+01    8.8479663426860533E+00
O    5.4344648218980784E-01    1.3328852550981651E+01    8.8479663327291220E+00
O    4.7840191034538870E+00    9.1481672086896406E+00    1.5245954858940459E+01
O    2.0799459803516962E+00    1.1861396185367242E+01    1.1131336573932877E+01
O    2.0799458228114158E+00    9.0420311370920565E+00    1.1131336474104250E+01
O    3.2475201929712871E+00    1.3222716551702479E+01    1.2962585065672490E+01
O    3.4854730212692888E+00    1.5938121642539990E+01    9.2013315967646303E+00
O    3.4854729709892336E+00    1.3326676404534782E+01    9.2013315713433155E+00
O    1.8419927462947410E+00    9.1459908768861116E+00    1.4892589738918904E+01
O    4.7048327046097267E+00    1.1853134128792016E+01    1.0948677764596530E+01
O    4.7048328749282033E+00    9.0502932631554813E+00    1.0948677898242952E+01
O    6.2263336858576890E-01    1.3230978713216325E+01    1.3145243601450414E+01
Al    7.5711942797997542E+00    1.4632399025483345E+01    9.0404742805339300E+00
Al    1.0262173685205818E+01    1.0451713814203657E+01    1.2038133670700585E+01
Al    1.0334253432689980E+01    1.4632398940772060E+01    9.0394524301084154E+00
Al    8.8438138145242480E+00    1.4632398967623498E+01    1.4017316878076070E+01
Al    7.4693557761107350E+00    8.9917411911235874E+00    1.2957985842205886E+01
Al    6.0604097535144437E+00    1.3201453538348201E+01    1.4960923054563553E+01
O    1.0309646526887763E+01    1.4632399004374198E+01    1.5069367019028318E+01
O    8.8289856736488730E+00    1.0451713635493208E+01    1.3174710629587629E+01
O    7.4233555839231213E+00    1.4632398991796491E+01    1.5174431585314849E+01
O    6.1710235588329656E+00    1.0451713711274158E+01    1.3072343364354390E+01
O    1.0337168183588476E+01    1.1755260227065806E+01    1.5245954821113216E+01
O    8.8006691837083491E+00    1.6042081411885416E+01    1.2962585039270113E+01
O    7.3951418987892641E+00    1.1757436411538711E+01    1.4892589848707377E+01
O    6.1757824059545756E+00    1.6033819246226916E+01    1.3145243640121889E+01
Al    8.8625694727396915E+00    1.0451713649796257E+01    1.5053446994674797E+01
Al    6.1715902863179339E+00    1.4632398991592224E+01    1.2055787791998066E+01
Al    6.0995102961145182E+00    1.0451713863653991E+01    1.5054468801794089E+01
Al    7.5899498050520009E+00    1.0451713749466238E+01    1.0076604599741396E+01
Al    8.9644079657207492E+00    1.3172427034927344E+01    1.1135935636350140E+01
Al    8.9644080921022447E+00    1.6092370929581431E+01    1.1135935739808824E+01
Al    7.4693559238458009E+00    1.1911685724024919E+01    1.2957985884370434E+01
Al    1.0373354228902643E+01    9.0207678318394837E+00    9.1329982356273849E+00
Al    1.0373353937258052E+01    1.1882659138742415E+01    9.1329981067191834E+00
Al    6.0604097541338877E+00    1.6063344534879484E+01    1.4960923019458615E+01
O    6.1241172627678155E+00    1.0451713657322303E+01    9.0245542121037658E+00
O    7.6047781836553829E+00    1.4632398957155583E+01    1.0919210821114254E+01
O    9.0104081037998736E+00    1.0451713599042497E+01    8.9194896409138575E+00
O    1.0262740359342747E+01    1.4632398965840746E+01    1.1021578100139083E+01
O    6.0965956317971450E+00    1.5935945380207540E+01    8.8479663795926751E+00
O    6.0965955726324035E+00    1.3328852583958620E+01    8.8479663718965806E+00
O    1.0337168126739718E+01    9.1481671453711026E+00    1.5245954826946949E+01
O    7.6330948836948238E+00    1.1861396156016344E+01    1.1131336519324483E+01
O    7.6330947782838727E+00    9.0420310964470598E+00    1.1131336443364095E+01
O    8.8006691386047411E+00    1.3222716522960805E+01    1.2962584995929603E+01
O    9.0386219451292398E+00    1.5938121603037352E+01    9.2013315156301498E+00
O    9.0386219051966616E+00    1.3326676359096988E+01    9.2013314893743843E+00
O    7.3951417650712532E+00    9.1459908637272829E+00    1.4892589751097661E+01
O    1.0257981596464971E+01    1.1853134063002257E+01    1.0948677684861012E+01
O    1.0257981818610693E+01    9.0502932105267409E+00    1.0948677829532366E+01
O    6.1757824032938755E+00    1.3230978700602654E+01    1.3145243655095156E+01
     &END COORD
     &KIND Al
       BASIS_SET DZVP-MOLOPT-SR-GTH-q3
       POTENTIAL GTH-PBE-q3
       &POTENTIAL
 2 1
  0.4500000000000000E+00 1 -0.7554761260000000E+01
 2
  0.4874352900000000E+00 2  0.6959938320000000E+01 -0.1888835840000000E+01
  0.2438476590000000E+01
  0.5621894900000000E+00 1  0.1865298570000000E+01
         # Potential name:  GTH-PBE-Q3  for symbol:  AL
         # Potential read from the potential filename: ../../cp2k-data/GTH_POTENTIALS
       &END POTENTIAL
     &END KIND
     &KIND O
       BASIS_SET DZVP-MOLOPT-SR-GTH-q6
       POTENTIAL GTH-PBE-q6
       &POTENTIAL
 2 4
  0.2445543000000000E+00 2 -0.1666721480000000E+02  0.2487311320000000E+01
 2
  0.2209559200000000E+00 1  0.1833745811000000E+02
  0.2113324700000000E+00 0
         # Potential name:  GTH-PBE-Q6  for symbol:  O
         # Potential read from the potential filename: ../../cp2k-data/GTH_POTENTIALS
       &END POTENTIAL
     &END KIND
     &TOPOLOGY
       COORD_FILE_NAME alumina_unrlxd.xyz
       COORD_FILE_FORMAT  XYZ
       NUMBER_OF_ATOMS  320
       MULTIPLE_UNIT_CELL  1 1 1
     &END TOPOLOGY
   &END SUBSYS
 &END FORCE_EVAL
