 # Version information for this restart file 
 # current date 2024-10-18 18:47:21.712
 # current working dir /scratch4/nmitra1/alumina_cp2k
 # Program compiled at                              Wed May 17 21:13:02 EDT 2023
 # Program compiled on                                                      c718
 # Program compiled for                            linux-centos8-cascadelake-gcc
 # Source code revision number                                       git:a8a26f8
 &GLOBAL
   PRINT_LEVEL  MEDIUM
   PROJECT_NAME Alumina_dft2
   RUN_TYPE  CELL_OPT
 &END GLOBAL
 &MOTION
   &CELL_OPT
     OPTIMIZER  BFGS
     MAX_FORCE     1.9000000000000001E-05
     STEP_START_VAL  33
     TYPE  DIRECT_CELL_OPT
     &PRINT
       &CELL  ON
       &END CELL
     &END PRINT
   &END CELL_OPT
 &END MOTION
 &FORCE_EVAL
   METHOD  QS
   STRESS_TENSOR  ANALYTICAL
   &DFT
     BASIS_SET_FILE_NAME ./cp2k-data/BASIS_MOLOPT
     POTENTIAL_FILE_NAME ./cp2k-data/GTH_POTENTIALS
     MULTIPLICITY  1
     CHARGE  0
     &SCF
       MAX_SCF  200
       EPS_SCF     1.0000000000000000E-08
       SCF_GUESS  ATOMIC
       &OT  T
         MINIMIZER  CG
       &END OT
       &OUTER_SCF  T
         EPS_SCF     1.0000000000000000E-08
         MAX_SCF  20
       &END OUTER_SCF
       &MIXING  T
         METHOD  BROYDEN_MIXING
         ALPHA     2.9999999999999999E-01
         NBUFFER  15
       &END MIXING
     &END SCF
     &QS
       EPS_DEFAULT     9.9999999999999998E-13
       EXTRAPOLATION  USE_PREV_P
       METHOD  GPW
     &END QS
     &MGRID
       CUTOFF     1.0000000000000000E+03
       REL_CUTOFF     7.0000000000000000E+01
     &END MGRID
     &XC
       DENSITY_CUTOFF     1.0000000000000000E-10
       GRADIENT_CUTOFF     1.0000000000000000E-10
       TAU_CUTOFF     1.0000000000000000E-10
       &XC_FUNCTIONAL  NO_SHORTCUT
         &PBE  T
         &END PBE
       &END XC_FUNCTIONAL
     &END XC
     &POISSON
       POISSON_SOLVER  PERIODIC
       PERIODIC  XYZ
     &END POISSON
   &END DFT
   &SUBSYS
     &CELL
       A     1.1161306302730925E+01    0.0000000000000000E+00    0.0000000000000000E+00
       B    -2.7513672730312588E-07    1.6798066896624714E+01    0.0000000000000000E+00
       C    -1.3564137506543392E-01    3.2393355235656983E-07    1.6126816267884301E+01
       MULTIPLE_UNIT_CELL  1 1 1
     &END CELL
     &COORD
Al    2.1050150168543600E+00    6.2992752704778541E+00    1.0139784609068545E+00
Al    4.8099276484696052E+00    2.0997586247598550E+00    4.0216886371847558E+00
Al    4.8813979349586747E+00    6.2992752518210793E+00    1.0131793467315362E+00
Al    3.3846492462275237E+00    6.2992754258006647E+00    6.0077509547298602E+00
Al    2.0046992204208607E+00    6.3340993486593511E-01    4.9449231401779361E+00
Al    5.8983141130730510E-01    4.8625092172060951E+00    6.9554446184280430E+00
O    4.8609103216779950E+00    6.2992754298278699E+00    7.0603410864172353E+00
O    3.3735075465841668E+00    2.0997586791572154E+00    5.1661369894638796E+00
O    1.9611605936048153E+00    6.2992754536280549E+00    7.1737171823563513E+00
O    7.0028165650170393E-01    2.0997587035527610E+00    5.0558908835435821E+00
O    4.8953607049861336E+00    3.4052433724689446E+00    7.2500473393518137E+00
O    3.3354661507586769E+00    7.7117323845488297E+00    4.9476612523626731E+00
O    1.9280468560768163E+00    3.4070580068405039E+00    6.8808006860927602E+00
O    7.1239098877061535E-01    7.7042218558108662E+00    5.1362369965345991E+00
Al    3.4078209675827038E+00    2.0997587842583565E+00    7.0494310005712135E+00
Al    7.0290845032009763E-01    6.2992755004303698E+00    4.0417207512196960E+00
Al    6.3143802291096884E-01    2.0997587693399127E+00    7.0502300290467552E+00
Al    2.1281866236740945E+00    2.0997586332562479E+00    2.0556585164074979E+00
Al    3.5081370615572447E+00    4.8329265159821162E+00    3.1184863906040650E+00
Al    3.5081370102750946E+00    7.7656241408213207E+00    3.1184863219454120E+00
Al    2.0046990992770661E+00    3.5661075492317114E+00    4.9449231187360700E+00
Al    4.9230045682156360E+00    6.6299224342574736E-01    1.1079647115825160E+00
Al    4.9230044716929093E+00    3.5365248506609346E+00    1.1079647699020727E+00
Al    5.8983138029126136E-01    7.7360417950631328E+00    6.9554447034743907E+00
O    6.5192565114751022E-01    2.0997585565708388E+00    1.0030682731438629E+00
O    2.1393285546751923E+00    6.2992753442985734E+00    2.8972724826297500E+00
O    3.5516753233377267E+00    2.0997585780988266E+00    8.8969235303682426E-01
O    4.8125544963109252E+00    6.2992753296393253E+00    3.0075185201984689E+00
O    6.1747512327353360E-01    7.6047598609728828E+00    8.1336207255024051E-01
O    6.1747517091999093E-01    4.9937906409148667E+00    8.1336208283877476E-01
O    4.8953607399554553E+00    7.9427408899345953E-01    7.2500473471205780E+00
O    2.1773701533553727E+00    3.5122156007657304E+00    3.1157482469537343E+00
O    2.1773701876998137E+00    6.8730166580892338E-01    3.1157482351672385E+00
O    3.3354662032149069E+00    4.8868184005981270E+00    4.9476612896843415E+00
O    3.5847891118531283E+00    7.6065745317048155E+00    1.1826087219469856E+00
O    3.5847891164959940E+00    4.9919760442836782E+00    1.1826087604945408E+00
O    1.9280469053047382E+00    7.9245953264268010E-01    6.8808007410191649E+00
O    4.8004452930201609E+00    3.5047050316201509E+00    2.9271724725235897E+00
O    4.8004453180200004E+00    6.9481222505409690E-01    2.9271724346553016E+00
O    7.1239102282430078E-01    4.8943290793862033E+00    5.1362369445296130E+00
Al    7.6856681886621043E+00    6.2992752422488403E+00    1.0139784610151321E+00
Al    1.0390580783616867E+01    2.0997585843259445E+00    4.0216886199986819E+00
Al    1.0462051075970873E+01    6.2992752280172644E+00    1.0131793061399743E+00
Al    8.9653024127188097E+00    6.2992754166580101E+00    6.0077509633464627E+00
Al    7.5853523565668119E+00    6.3340990829019617E-01    4.9449231315741509E+00
Al    6.1704845745934271E+00    4.8625092170987205E+00    6.9554446411618986E+00
O    1.0441563466202918E+01    6.2992754233063124E+00    7.0603411009416588E+00
O    8.9541606873673150E+00    2.0997586578164142E+00    5.1661369605402365E+00
O    7.5418137541684844E+00    6.2992754314705870E+00    7.1737171889428426E+00
O    6.2809348025406733E+00    2.0997586917346669E+00    5.0558909112582251E+00
O    1.0476013829489535E+01    3.4052433702835123E+00    7.2500473099148266E+00
O    8.9161193094519984E+00    7.7117323667184872E+00    4.9476612502373207E+00
O    7.5087000223001716E+00    3.4070579914253019E+00    6.8808006911099442E+00
O    6.2930441424518788E+00    7.7042218414376773E+00    5.1362370046006589E+00
Al    8.9884740730277048E+00    2.0997587692034085E+00    7.0494309728716775E+00
Al    6.2835616198485456E+00    6.2992754672811513E+00    4.0417207832714803E+00
Al    6.2120911788350206E+00    2.0997587737926584E+00    7.0502300546530616E+00
Al    7.7088397632617180E+00    2.0997586115308939E+00    2.0556585055418548E+00
Al    9.0887902138211878E+00    4.8329265056895876E+00    3.1184863895582895E+00
Al    9.0887901455103783E+00    7.7656241183297317E+00    3.1184863075782094E+00
Al    7.5853522696264175E+00    3.5661075324891121E+00    4.9449231109826304E+00
Al    1.0503657720390061E+01    6.6299220944544235E-01    1.1079646927834952E+00
Al    1.0503657591797857E+01    3.5365247976939331E+00    1.1079647382280344E+00
Al    6.1704845233961692E+00    7.7360417953739358E+00    6.9554447178884296E+00
O    6.2325788001374534E+00    2.0997585778562393E+00    1.0030682900335073E+00
O    7.7199817059620894E+00    6.2992753201131642E+00    2.8972724919428146E+00
O    9.1323284597090240E+00    2.0997585587994640E+00    8.8969232473016824E-01
O    1.0393207654127600E+01    6.2992753170486520E+00    3.0075184826353074E+00
O    6.1981283038801571E+00    7.6047598846739755E+00    8.1336208788394693E-01
O    6.1981283128522815E+00    4.9937906655249957E+00    8.1336209991295338E-01
O    1.0476013870625843E+01    7.9427406305738679E-01    7.2500473154947809E+00
O    7.7580232782826890E+00    3.5122155897610772E+00    3.1157482344850287E+00
O    7.7580233210853908E+00    6.8730164424042950E-01    3.1157482291473646E+00
O    8.9161193742813669E+00    4.8868183916572265E+00    4.9476612904887363E+00
O    9.1654422415155015E+00    7.6065745126211137E+00    1.1826087050441545E+00
O    9.1654422655293857E+00    4.9919760283653902E+00    1.1826087475954228E+00
O    7.5087000578269985E+00    7.9245952657751217E-01    6.8808007428610232E+00
O    1.0381098410787601E+01    3.5047049866539997E+00    2.9271724480879344E+00
O    1.0381098447943572E+01    6.9481219355960055E-01    2.9271724136095711E+00
O    6.2930441802656372E+00    4.8943290434881517E+00    5.1362369558834970E+00
Al    2.1050148927745891E+00    1.4698308727419608E+01    1.0139784909394616E+00
Al    4.8099275440782057E+00    1.0498792059765131E+01    4.0216886621121741E+00
Al    4.8813978035703656E+00    1.4698308704640484E+01    1.0131793797480604E+00
Al    3.3846491130284719E+00    1.4698308895178611E+01    6.0077509708369865E+00
Al    2.0046991222855124E+00    9.0324433654781249E+00    4.9449231460961309E+00
Al    5.8983128629918291E-01    1.3261542679818183E+01    6.9554446446281277E+00
O    4.8609101901224445E+00    1.4698308881188742E+01    7.0603410996769762E+00
O    3.3735074403896013E+00    1.0498792116091458E+01    5.1661370109708162E+00
O    1.9611604614629978E+00    1.4698308905666876E+01    7.1737172052130758E+00
O    7.0028155856546026E-01    1.0498792146276314E+01    5.0558908963696636E+00
O    4.8953605870724068E+00    1.1804276822823978E+01    7.2500473606084990E+00
O    3.3354660373533749E+00    1.6110765870479831E+01    4.9476612813345691E+00
O    1.9280467431811290E+00    1.1806091445653880E+01    6.8808007118708545E+00
O    7.1239087760534825E-01    1.6103255287619508E+01    5.1362370262172661E+00
Al    3.4078208366136806E+00    1.0498792224828614E+01    7.0494310381103666E+00
Al    7.0290833335157898E-01    1.4698308936863187E+01    4.0417207772215562E+00
Al    6.3143790541754730E-01    1.0498792216571163E+01    7.0502300454156979E+00
Al    2.1281865207125530E+00    1.0498792084554433E+01    2.0556585475342137E+00
Al    3.5081369646560088E+00    1.3231959941244282E+01    3.1184864115089752E+00
Al    3.5081368581560564E+00    1.6164657594344920E+01    3.1184863628920745E+00
Al    2.0046989948813394E+00    1.1965141001475391E+01    4.9449231497600037E+00
Al    4.9230044961043040E+00    9.0620256857945378E+00    1.1079647233730128E+00
Al    4.9230043447906251E+00    1.1935558298459096E+01    1.1079647785716835E+00
Al    5.8983124555892097E-01    1.6135075249741977E+01    6.9554447211748416E+00
O    6.5192555430405363E-01    1.0498792003892268E+01    1.0030682864784473E+00
O    2.1393284321521016E+00    1.4698308790358645E+01    2.8972725125878362E+00
O    3.5516752133721385E+00    1.0498792025191012E+01    8.8969238013983643E-01
O    4.8125543750476822E+00    1.4698308783792262E+01    3.0075185470769190E+00
O    6.1747497152431374E-01    1.6003793320048604E+01    8.1336208033494584E-01
O    6.1747504646362028E-01    1.3392824094028763E+01    8.1336210780145990E-01
O    4.8953606200187041E+00    9.1933075420135264E+00    7.2500473658575473E+00
O    2.1773700446242232E+00    1.1911249053477118E+01    3.1157482719558840E+00
O    2.1773700775646669E+00    9.0863351111883404E+00    3.1157482417146860E+00
O    3.3354660914452632E+00    1.3285851858665559E+01    4.9476613125591786E+00
O    3.5847889612093442E+00    1.6005607978927181E+01    1.1826087435821073E+00
O    3.5847889967217368E+00    1.3391009490240316E+01    1.1826087865093939E+00
O    1.9280467744739802E+00    9.1914929602243376E+00    6.8808007446889246E+00
O    4.8004451812173485E+00    1.1903738459454010E+01    2.9271724850312912E+00
O    4.8004452278889485E+00    9.0938456496300866E+00    2.9271724528589411E+00
O    7.1239091058632598E-01    1.3293362522869812E+01    5.1362369731272040E+00
Al    7.6856680645771185E+00    1.4698308699178854E+01    1.0139784910479637E+00
Al    1.0390580679238235E+01    1.0498792019329292E+01    4.0216886449321017E+00
Al    1.0462050944585842E+01    1.4698308680832978E+01    1.0131793391693640E+00
Al    8.9653022795217723E+00    1.4698308886024243E+01    6.0077509794618171E+00
Al    7.5853522584253534E+00    9.0324433388960017E+00    4.9449231374831610E+00
Al    6.1704844495861044E+00    1.3261542679708869E+01    6.9554446673581252E+00
O    1.0441563334636813E+01    1.4698308874661604E+01    7.0603411141999013E+00
O    8.9541605811724736E+00    1.0498792094745696E+01    5.1661369820385348E+00
O    7.5418136220241276E+00    1.4698308883511404E+01    7.1737172117874008E+00
O    6.2809347046082706E+00    1.0498792134459228E+01    5.0558909240736849E+00
O    1.0476013711569214E+01    1.1804276820638878E+01    7.2500473311679565E+00
O    8.9161191960678448E+00    1.6110765852645272E+01    4.9476612792131922E+00
O    7.5086999094093736E+00    1.1806091430246049E+01    6.8808007168861707E+00
O    6.2930440312985914E+00    1.6103255273241029E+01    5.1362370342827282E+00
Al    8.9884739420545543E+00    1.0498792209766403E+01    7.0494310104031372E+00
Al    6.2835615028823915E+00    1.4698308903704280E+01    4.0417208092651329E+00
Al    6.2120910613382199E+00    1.0498792221025258E+01    7.0502300710020060E+00
Al    7.7088396602918650E+00    1.0498792062842218E+01    2.0556585366752844E+00
Al    9.0887901169350851E+00    1.3231959930949378E+01    3.1184864104681296E+00
Al    9.0887899933982954E+00    1.6164657571853045E+01    3.1184863485181378E+00
Al    7.5853521652376035E+00    1.1965140984720007E+01    4.9449231420096007E+00
Al    1.0503657648265785E+01    9.0620256518144107E+00    1.1079647045611543E+00
Al    1.0503657464889217E+01    1.1935558245494061E+01    1.1079647469097373E+00
Al    6.1704843886513814E+00    1.6135075250047397E+01    6.9554447355951847E+00
O    6.2325787032944939E+00    1.0498792025182713E+01    1.0030683033685379E+00
O    7.7199815834467351E+00    1.4698308766184256E+01    2.8972725219015492E+00
O    9.1323283497333101E+00    1.0498792005899711E+01    8.8969235183192397E-01
O    1.0393207532866489E+01    1.4698308771201402E+01    3.0075185095198593E+00
O    6.1981281521125586E+00    1.6003793343751937E+01    8.1336209567449080E-01
O    6.1981281884019745E+00    1.3392824118635133E+01    8.1336212486325821E-01
O    1.0476013750682981E+01    9.1933075160699378E+00    7.2500473342302598E+00
O    7.7580231695421267E+00    1.1911249042471402E+01    3.1157482594783277E+00
O    7.7580232109520519E+00    9.0863350896192152E+00    3.1157482357075397E+00
O    8.9161192625303052E+00    1.3285851849711108E+01    4.9476613133699026E+00
O    9.1654420908768959E+00    1.6005607959849907E+01    1.1826087266819132E+00
O    9.1654421457425279E+00    1.3391009474310245E+01    1.1826087736173991E+00
O    7.5086999269948391E+00    9.1914929541665416E+00    6.8808007465297214E+00
O    1.0381098298985542E+01    1.1903738414495582E+01    2.9271724605964846E+00
O    1.0381098357806531E+01    9.0938456181348268E+00    2.9271724318053991E+00
O    6.2930440680441162E+00    1.3293362486967197E+01    5.1362369844702682E+00
Al    2.0371942744675255E+00    6.2992754116450120E+00    9.0773866088458703E+00
Al    4.7421069515102330E+00    2.0997587713934784E+00    1.2085096795038972E+01
Al    4.8135772102840697E+00    6.2992754423094102E+00    9.0765874084583196E+00
Al    3.3168285965830435E+00    6.2992755799124405E+00    1.4071159067795813E+01
Al    1.9368785386030787E+00    6.3341010748179571E-01    1.3008331259497588E+01
Al    5.2201070983282793E-01    4.8625093318015677E+00    1.5018852791552204E+01
O    4.7930896572710582E+00    6.2992755945621575E+00    1.5123749209575292E+01
O    3.3056868384799345E+00    2.0997588408565258E+00    1.3229545130866331E+01
O    1.8933399437906726E+00    6.2992755983057167E+00    1.5237125295579517E+01
O    6.3246095776030042E-01    2.0997588621988901E+00    1.3119299022559531E+01
O    4.8275399698046719E+00    3.4052435314173857E+00    1.5313455467017091E+01
O    3.2676454745579036E+00    7.7117325459085819E+00    1.3011069377124983E+01
O    1.8602261267112055E+00    3.4070581381590741E+00    1.4944208816265016E+01
O    6.4457032231860245E-01    7.7042220001229422E+00    1.3199645094096972E+01
Al    3.3400002204812824E+00    2.0997589202548164E+00    1.5112839145941010E+01
Al    6.3508774234663512E-01    6.2992756403889096E+00    1.2105128854471282E+01
Al    5.6361729097424340E-01    2.0997588923444068E+00    1.5113638151310479E+01
Al    2.0603659401502337E+00    2.0997588212647096E+00    1.0119066655978274E+01
Al    3.4403164003608411E+00    4.8329266621324516E+00    1.1181894459125042E+01
Al    3.4403163254648366E+00    7.7656242707345813E+00    1.1181894460704006E+01
Al    1.9368783879546887E+00    3.5661077319781378E+00    1.3008331250011759E+01
Al    4.8551838280751669E+00    6.6299244887675379E-01    9.1713728918493800E+00
Al    4.8551838561649330E+00    3.5365250366098797E+00    9.1713728831862102E+00
Al    5.2201070696696827E-01    7.7360419107269323E+00    1.5018852796285900E+01
O    5.8410497216683055E-01    2.0997587373593056E+00    9.0664764281264034E+00
O    2.0715078544044481E+00    6.2992755037060002E+00    1.0960680599734639E+01
O    3.4838546399412134E+00    2.0997587536065985E+00    8.9531004979150186E+00
O    4.7447337994644982E+00    6.2992754708904304E+00    1.1070926621943991E+01
O    5.4965442165865652E-01    7.6047600313395893E+00    8.8767702048787616E+00
O    5.4965446205047330E-01    4.9937908220114924E+00    8.8767702018773527E+00
O    4.8275400353154980E+00    7.9427422965808658E-01    1.5313455478626777E+01
O    2.1095494454789847E+00    3.5122157822104434E+00    1.1179156374207745E+01
O    2.1095495262321635E+00    6.8730183934760469E-01    1.1179156360443281E+01
O    3.2676455128446844E+00    4.8868185685553476E+00    1.3011069382772245E+01
O    3.5169684101290510E+00    7.6065747065586997E+00    9.2460168511081484E+00
O    3.5169684077266106E+00    4.9919762087658999E+00    9.2460168560722291E+00
O    1.8602261959098789E+00    7.9245967480682122E-01    1.4944208866944329E+01
O    4.7326245941807121E+00    3.5047051686036808E+00    1.0990580590986069E+01
O    4.7326246497585469E+00    6.9481236926832779E-01    1.0990580590673595E+01
O    6.4457031534554987E-01    4.8943292423480713E+00    1.3199645086133126E+01
Al    7.6178474462732257E+00    6.2992753833964921E+00    9.0773866089652397E+00
Al    1.0322760086665516E+01    2.0997587309380443E+00    1.2085096777851531E+01
Al    1.0394230351302202E+01    6.2992754184948527E+00    9.0765873678712286E+00
Al    8.8974817630780922E+00    6.2992755707519601E+00    1.4071159076412686E+01
Al    7.5175316747540526E+00    6.3341008088885098E-01    1.3008331250874686E+01
Al    6.1026638731133538E+00    4.8625093316763150E+00    1.5018852814283880E+01
O    1.0373742801798203E+01    6.2992755880371991E+00    1.5123749224095894E+01
O    8.8863399792709163E+00    2.0997588194888790E+00    1.3229545101939861E+01
O    7.4739931043559578E+00    6.2992755761360346E+00    1.5237125302160623E+01
O    6.2131141038094464E+00    2.0997588503861588E+00    1.3119299050265065E+01
O    1.0408193094304291E+01    3.4052435292392254E+00    1.5313455437582126E+01
O    8.8482986332769755E+00    7.7117325280705096E+00    1.3011069375006464E+01
O    7.4408792929388694E+00    3.4070581227393650E+00    1.4944208821280814E+01
O    6.2252234760232330E+00    7.7042219857339251E+00    1.3199645102165231E+01
Al    8.9206533259153886E+00    2.0997589051882732E+00    1.5112839118236783E+01
Al    6.2157409118831533E+00    6.2992756072322331E+00    1.2105128886513938E+01
Al    6.1442704469020653E+00    2.0997588967924661E+00    1.5113638176916657E+01
Al    7.6410190797373225E+00    2.0997587995315405E+00    1.0119066645105779E+01
Al    9.0209695526561831E+00    4.8329266518400997E+00    1.1181894458084749E+01
Al    9.0209694607118358E+00    7.7656242482488338E+00    1.1181894446341708E+01
Al    7.5175315583335180E+00    3.5661077152199887E+00    1.3008331242260189E+01
Al    1.0435836980248945E+01    6.6299241489010496E-01    9.1713728730319168E+00
Al    1.0435836976288588E+01    3.5365249836416126E+00    9.1713728515244597E+00
Al    6.1026638500847286E+00    7.7360419110310135E+00    1.5018852810697801E+01
O    6.1647581211564031E+00    2.0997587586518067E+00    9.0664764450204007E+00
O    7.6521610057077236E+00    6.2992754795347325E+00    1.0960680609048246E+01
O    9.0645077763168285E+00    2.0997587343117265E+00    8.9531004695959329E+00
O    1.0325386957291025E+01    6.2992754582897224E+00    1.1070926584366852E+01
O    6.1303076022477292E+00    7.6047600550531600E+00    8.8767702202240670E+00
O    6.1303076039936393E+00    4.9937908466218301E+00    8.8767702189440385E+00
O    1.0408193165967333E+01    7.9427420372156132E-01    1.5313455446997157E+01
O    7.6902025704189221E+00    3.5122157711975959E+00    1.1179156361719098E+01
O    7.6902026596438784E+00    6.8730181777718979E-01    1.1179156354424906E+01
O    8.8482986839350541E+00    4.8868185596049045E+00    1.3011069383569591E+01
O    9.0976215398013931E+00    7.6065746874784077E+00    9.2460168342022584E+00
O    9.0976215567510099E+00    4.9919761928303883E+00    9.2460168431781664E+00
O    7.4408793484298039E+00    7.9245966873038609E-01    1.4944208868791781E+01
O    1.0313277711975879E+01    3.5047051236448268E+00    1.0990580566546354E+01
O    1.0313277779695559E+01    6.9481233775540019E-01    1.0990580569610048E+01
O    6.2252234728106455E+00    4.8943292064464634E+00    1.3199645097479058E+01
Al    2.0371941503948663E+00    1.4698308868542979E+01    9.0773866388977371E+00
Al    4.7421068471710619E+00    1.0498792206377640E+01    1.2085096819971678E+01
Al    4.8135770789081143E+00    1.4698308895111936E+01    9.0765874414884475E+00
Al    3.3168284633654546E+00    1.4698309049299159E+01    1.4071159083903412E+01
Al    1.9368784405147050E+00    9.0324435380773540E+00    1.3008331265410961E+01
Al    5.2201058482097573E-01    1.3261542794401693E+01    1.5018852817751510E+01
O    4.7930895257013804E+00    1.4698309045925454E+01    1.5123749222822012E+01
O    3.3056867323328842E+00    1.0498792277781284E+01    1.3229545152371825E+01
O    1.8933398116222278E+00    1.4698309050355505E+01    1.5237125318425951E+01
O    6.3246085989131517E-01    1.0498792304910351E+01    1.3119299035373146E+01
O    4.8275398518935173E+00    1.1804276981767590E+01    1.5313455488248355E+01
O    3.2676453611151053E+00    1.6110766031840825E+01    1.3011069406079843E+01
O    1.8602260138158171E+00    1.1806091576965159E+01    1.4944208842038528E+01
O    6.4457021111518753E-01    1.6103255431933690E+01    1.3199645123772127E+01
Al    3.3400000895096751E+00    1.0498792360804190E+01    1.5112839183480375E+01
Al    6.3508762537742025E-01    1.4698309076805240E+01    1.2105128880466749E+01
Al    5.6361717349465490E-01    1.0498792339566533E+01    1.5113638167667244E+01
Al    2.0603658371941784E+00    1.0498792272571809E+01    1.0119066687124576E+01
Al    3.4403163035124682E+00    1.3231960087393418E+01    1.1181894480055446E+01
Al    3.4403161733039029E+00    1.6164657724265645E+01    1.1181894501642486E+01
Al    1.9368782836000769E+00    1.1965141184219391E+01    1.3008331281040144E+01
Al    4.8551837559679560E+00    9.0620258912528424E+00    9.1713729036320828E+00
Al    4.8551837292841311E+00    1.1935558484396218E+01    9.1713728918766737E+00
Al    5.2201057220261593E-01    1.6135075365413538E+01    1.5018852813978999E+01
O    5.8410487533012745E-01    1.0498792184681273E+01    9.0664764414694012E+00
O    2.0715077318867081E+00    1.4698308949777259E+01    1.0960680629699636E+01
O    3.4838545299769468E+00    1.0498792200708060E+01    8.9531005250218971E+00
O    4.7447336782062379E+00    1.4698308925059512E+01    1.1070926648834719E+01
O    5.4965426990448540E-01    1.6003793490413695E+01    8.8767702126938168E+00
O    5.4965433762315052E-01    1.3392824275124273E+01    8.8767702268231847E+00
O    4.8275399153941434E+00    9.1933076826642459E+00    1.5313455497361689E+01
O    2.1095493367790370E+00    1.1911249234931667E+01    1.1179156399217696E+01
O    2.1095494161613901E+00    9.0863352847154175E+00    1.1179156367011460E+01
O    3.2676454011125595E+00    1.3285852026625234E+01    1.3011069405671712E+01
O    3.5169682594875860E+00    1.6005608153780326E+01    9.2460168727430236E+00
O    3.5169682879678175E+00    1.3391009654701730E+01    9.2460168821037474E+00
O    1.8602260651015521E+00    9.1914931023853477E+00    1.4944208870622875E+01
O    4.7326244824282053E+00    1.1903738596435534E+01    1.0990580603512266E+01
O    4.7326245596830594E+00    9.0938457938219077E+00    1.0990580608870722E+01
O    6.4457020314303615E-01    1.3293362685817495E+01    1.3199645114733352E+01
Al    7.6178473222030449E+00    1.4698308840292041E+01    9.0773866389955007E+00
Al    1.0322759982338059E+01    1.0498792165929832E+01    1.2085096802781186E+01
Al    1.0394230219930034E+01    1.4698308871308106E+01    9.0765874008976244E+00
Al    8.8974816298604313E+00    1.4698309040123476E+01    1.4071159092516609E+01
Al    7.5175315766615025E+00    9.0324435114892658E+00    1.3008331256794754E+01
Al    6.1026637481112989E+00    1.3261542794288546E+01    1.5018852840469108E+01
O    1.0373742670221731E+01    1.4698309039404805E+01    1.5123749237350893E+01
O    8.8863398731165901E+00    1.0498792256427658E+01    1.3229545123429656E+01
O    7.4739929721954335E+00    1.4698309028181926E+01    1.5237125325001726E+01
O    6.2131140059375731E+00    1.0498792293090103E+01    1.3119299063067787E+01
O    1.0408192976397805E+01    1.1804276979593570E+01    1.5313455458815181E+01
O    8.8482985198305357E+00    1.6110766013995580E+01    1.3011069403953950E+01
O    7.4408791800542966E+00    1.1806091561556297E+01    1.4944208847044214E+01
O    6.2252233648202679E+00    1.6103255417541028E+01    1.3199645131834478E+01
Al    8.9206531949532373E+00    1.0498792345751585E+01    1.5112839155773067E+01
Al    6.2157407949205572E+00    1.4698309043648901E+01    1.2105128912502762E+01
Al    6.1442703294197747E+00    1.0498792344024455E+01    1.5113638193259026E+01
Al    7.6410189767781489E+00    1.0498792250835512E+01    1.0119066676254219E+01
Al    9.0209694558054441E+00    1.3231960077094042E+01    1.1181894479008479E+01
Al    9.0209693085398577E+00    1.6164657701775152E+01    1.1181894487262776E+01
Al    7.5175314539732039E+00    1.1965141167455783E+01    1.3008331273273333E+01
Al    1.0435836908132197E+01    9.0620258572678853E+00    9.1713728848259652E+00
Al    1.0435836849397214E+01    1.1935558431424187E+01    9.1713728602043521E+00
Al    6.1026637153175560E+00    1.6135075365712485E+01    1.5018852828390289E+01
O    6.1647580243301903E+00    1.0498792205974421E+01    9.0664764583617590E+00
O    7.6521608831879435E+00    1.4698308925592212E+01    1.0960680639005277E+01
O    9.0645076663516750E+00    1.0498792181399965E+01    8.9531004967178074E+00
O    1.0325386836026711E+01    1.4698308912454086E+01    1.1070926611257816E+01
O    6.1303074504938717E+00    1.6003793514114331E+01    8.8767702280275422E+00
O    6.1303074795541663E+00    1.3392824299731618E+01    8.8767702438936915E+00
O    1.0408193046053567E+01    9.1933076567323617E+00    1.5313455465730247E+01
O    7.6902024617184610E+00    1.1911249223918350E+01    1.1179156386723708E+01
O    7.6902025495637165E+00    9.0863352631404375E+00    1.1179156360996231E+01
O    8.8482985722079714E+00    1.3285852017664034E+01    1.3011069406469254E+01
O    9.0976213891550390E+00    1.6005608134695272E+01    9.2460168558302307E+00
O    9.0976214369918473E+00    1.3391009638767848E+01    9.2460168692054854E+00
O    7.4408792176267795E+00    9.1914930963221266E+00    1.4944208872466435E+01
O    1.0313277600221880E+01    1.1903738551467681E+01    1.0990580579069988E+01
O    1.0313277689614621E+01    9.0938457623128315E+00    1.0990580587822395E+01
O    6.2252233606023255E+00    1.3293362649911529E+01    1.3199645126063103E+01
     &END COORD
     &KIND Al
       BASIS_SET DZVP-MOLOPT-SR-GTH-q3
       POTENTIAL GTH-PBE-q3
       &POTENTIAL
 2 1
  0.4500000000000000E+00 1 -0.7554761260000000E+01
 2
  0.4874352900000000E+00 2  0.6959938320000000E+01 -0.1888835840000000E+01
  0.2438476590000000E+01
  0.5621894900000000E+00 1  0.1865298570000000E+01
         # Potential name:  GTH-PBE-Q3  for symbol:  AL
         # Potential read from the potential filename: ./cp2k-data/GTH_POTENTIALS
       &END POTENTIAL
     &END KIND
     &KIND O
       BASIS_SET DZVP-MOLOPT-SR-GTH-q6
       POTENTIAL GTH-PBE-q6
       &POTENTIAL
 2 4
  0.2445543000000000E+00 2 -0.1666721480000000E+02  0.2487311320000000E+01
 2
  0.2209559200000000E+00 1  0.1833745811000000E+02
  0.2113324700000000E+00 0
         # Potential name:  GTH-PBE-Q6  for symbol:  O
         # Potential read from the potential filename: ./cp2k-data/GTH_POTENTIALS
       &END POTENTIAL
     &END KIND
     &TOPOLOGY
       COORD_FILE_NAME alumina_unrlxd.xyz
       COORD_FILE_FORMAT  XYZ
       NUMBER_OF_ATOMS  320
       MULTIPLE_UNIT_CELL  1 1 1
     &END TOPOLOGY
   &END SUBSYS
 &END FORCE_EVAL
