%nprocshared=16
%mem=2000MW
%chk=c2sdimerts2.chk
# opt=(tight,maxcycle=1600) freq wb97xd/6-311++g(d,p)
scrf=(cpcm,solvent=water) nosymm scf=maxcycle=800

c2sdimerts2

-1 1
 Si                -0.15226100    0.64925900    0.08285300
 O                 -1.81991100    0.77653300   -0.12512800
 O                  0.09575800    0.57549800   -1.64880300
 O                  0.08165900    2.21008700    0.75698000
 O                 -0.29434400   -0.74430100    1.08080800
 Ca                -3.13342400    2.47551700   -0.95596900
 O                 -3.40302500    0.00014700   -1.94208500
 O                 -3.89761300    1.27661200    1.19214700
 O                 -2.01912900    3.91214200    0.28216300
 O                 -1.56888900    2.25770100   -2.79362200
 H                 -2.98495700    0.93250100    0.91257800
 H                 -3.76271100    1.80235900    1.98499400
 H                 -2.65790000    0.06914500   -1.26089800
 H                 -2.97166600    0.01225300   -2.79877600
 H                 -0.69637600    2.80448400    0.64116000
 H                 -1.81303200    4.83805700    0.39448800
 H                 -0.88329000    1.62955700   -2.43094200
 H                 -1.09612100    2.96817500   -3.22924400
 H                  0.59401200   -1.01867700    1.31293600
 H                  1.02362300    0.62825200   -1.90212200
 Si                 2.95231500    1.24622400   -0.21435300
 O                  4.39059400    0.74101100    0.30892200
 O                  2.66505500    2.83983400    0.19818100
 O                  2.97976500    1.23238100   -1.91221300
 O                  1.67207900    0.37232400    0.27694500
 Ca                 6.15008100    0.14287800   -1.22397700
 O                  6.75620700    1.64871900    0.72214600
 O                  5.66487500   -1.47588300    0.63208100
 O                  4.61983000   -0.66086400   -2.59550800
 O                  5.49780600    2.27572300   -2.32418000
 H                  4.94111800   -0.81343600    0.75578400
 H                  5.24425800   -2.31879400    0.45810200
 H                  5.77512400    1.58234000    0.82588200
 H                  6.98062700    2.57956100    0.68872500
 H                  3.45857000    0.42051500   -2.26754700
 H                  4.49211900   -1.37108700   -3.33999300
 H                  4.52840300    2.15696600   -2.31902100
 H                  5.66195100    3.13930300   -1.94073200
 H                  1.72242200    2.88065400    0.46270100

