%nprocshared=16
%mem=2000MW
%chk=c2sdimerts1.chk
# opt=maxcycle=1600 freq wb97xd/6-311++g(d,p) scrf=(cpcm,solvent=water)
nosymm scf=maxcycle=800

c2sdimerts1

-1 1
 Si                -1.41802069   -0.14032496    0.00000000
 O                 -3.04292269   -0.03332396   -0.04067000
 O                 -1.11141669   -0.43564396   -1.64818000
 O                 -0.90900069    1.37234804    0.51117900
 O                 -1.12659669   -1.38902696    1.07261600
 Ca                -4.26320669    1.72966204   -0.95001300
 O                 -4.90548869   -0.72198396   -1.64175400
 O                 -4.92812969    0.86635304    1.39894100
 O                 -2.82744969    3.11263204    0.00847100
 O                 -2.85307569    1.19558104   -2.88357600
 H                 -4.10093469    0.37831204    1.13122900
 H                 -4.68746469    1.43518204    2.13207800
 H                 -4.09590069   -0.76372596   -1.06279900
 H                 -4.59990769   -0.89239996   -2.53501800
 H                 -1.61413069    2.07134804    0.37025200
 H                 -2.57531969    4.03306404   -0.03374400
 H                 -2.13140969    0.59999204   -2.57304500
 H                 -2.44892669    1.84111304   -3.46570900
 H                 -0.16300769   -1.50179196    1.02624600
 H                 -0.15235169   -0.56064796   -1.71043600
 Si                 2.12807131    0.43242704   -0.33245000
 O                  3.56128631   -0.04203396    0.26699900
 O                  1.73060131    1.94985104    0.26538200
 O                  2.37169931    0.72175204   -1.99702100
 O                  0.91732931   -0.59036696   -0.11959500
 Ca                 5.40408131   -0.50413596   -1.16751400
 O                  5.83988131    0.80959204    0.97812300
 O                  4.69493731   -2.33756696    0.42499100
 O                  4.04338131   -1.16104096   -2.79319500
 O                  4.85870931    1.72656804   -2.08727700
 H                  4.00787131   -1.63129296    0.55648000
 H                  4.24056831   -3.11141096    0.08760900
 H                  4.84936031    0.71238604    0.95130100
 H                  6.03836331    1.74484804    1.03952400
 H                  2.82271931   -0.05868096   -2.41922700
 H                  3.84198731   -1.95300796   -3.28720600
 H                  3.88136931    1.59656804   -2.12239400
 H                  5.00703331    2.53729204   -1.59711400
 H                  0.76569331    1.93836804    0.42154100

