 # Version information for this restart file 
 # current date 2024-11-07 17:14:39.127
 # current working dir /scratch4/nmitra1/alumina_cp2k/cellopt_dftd2/222
 # Program compiled at                              Wed May 17 21:13:02 EDT 2023
 # Program compiled on                                                      c718
 # Program compiled for                            linux-centos8-cascadelake-gcc
 # Source code revision number                                       git:a8a26f8
 &GLOBAL
   PRINT_LEVEL  MEDIUM
   PROJECT_NAME Alumina_dftd22
   RUN_TYPE  CELL_OPT
 &END GLOBAL
 &MOTION
   &CELL_OPT
     OPTIMIZER  BFGS
     MAX_FORCE     1.9000000000000001E-05
     STEP_START_VAL  31
     TYPE  DIRECT_CELL_OPT
     &PRINT
       &CELL  ON
       &END CELL
     &END PRINT
   &END CELL_OPT
 &END MOTION
 &FORCE_EVAL
   METHOD  QS
   STRESS_TENSOR  ANALYTICAL
   &DFT
     BASIS_SET_FILE_NAME ../../cp2k-data/BASIS_MOLOPT
     POTENTIAL_FILE_NAME ../../cp2k-data/GTH_POTENTIALS
     MULTIPLICITY  1
     CHARGE  0
     &SCF
       MAX_SCF  200
       EPS_SCF     1.0000000000000000E-08
       SCF_GUESS  ATOMIC
       &OT  T
         MINIMIZER  CG
       &END OT
       &OUTER_SCF  T
         EPS_SCF     1.0000000000000000E-08
         MAX_SCF  20
       &END OUTER_SCF
       &MIXING  T
         METHOD  BROYDEN_MIXING
         ALPHA     2.9999999999999999E-01
         NBUFFER  15
       &END MIXING
     &END SCF
     &QS
       EPS_DEFAULT     9.9999999999999998E-13
       EXTRAPOLATION  USE_PREV_P
       METHOD  GPW
     &END QS
     &MGRID
       CUTOFF     1.0000000000000000E+03
       REL_CUTOFF     7.0000000000000000E+01
     &END MGRID
     &XC
       DENSITY_CUTOFF     1.0000000000000000E-10
       GRADIENT_CUTOFF     1.0000000000000000E-10
       TAU_CUTOFF     1.0000000000000000E-10
       &XC_FUNCTIONAL  NO_SHORTCUT
         &PBE  T
         &END PBE
       &END XC_FUNCTIONAL
       &VDW_POTENTIAL
         POTENTIAL_TYPE  PAIR_POTENTIAL
         &PAIR_POTENTIAL
           R_CUTOFF     2.0000000000000004E+01
           TYPE  DFTD2
           PARAMETER_FILE_NAME ../
           REFERENCE_FUNCTIONAL PBE
           SCALING     7.5000000000000000E-01
         &END PAIR_POTENTIAL
       &END VDW_POTENTIAL
     &END XC
     &POISSON
       POISSON_SOLVER  PERIODIC
       PERIODIC  XYZ
     &END POISSON
   &END DFT
   &SUBSYS
     &CELL
       A     1.1091763697624470E+01    0.0000000000000000E+00    0.0000000000000000E+00
       B     6.1864256243142614E-08    1.6678516534392823E+01    0.0000000000000000E+00
       C    -1.4817374272345937E-01   -3.0489896759673420E-08    1.6050534643292867E+01
       MULTIPLE_UNIT_CELL  1 1 1
     &END CELL
     &COORD
Al    2.0888171391954247E+00    6.2544438875817976E+00    1.0089112401071501E+00
Al    4.7892268345450200E+00    2.0848148236378150E+00    4.0091096815591660E+00
Al    4.8487733866501328E+00    6.2544439262358944E+00    1.0022459124446883E+00
Al    3.3705606594432465E+00    6.2544439065917992E+00    5.9884516110522048E+00
Al    1.9924641086555683E+00    6.2595754978034768E-01    4.9221146931971100E+00
Al    5.8572640316365954E-01    4.8185249404430506E+00    6.9229748241827522E+00
O    4.8307789528666669E+00    6.2544439209020677E+00    7.0381917657456849E+00
O    3.3507765836620402E+00    2.0848147673507773E+00    5.1373779484437190E+00
O    1.9458633095322326E+00    6.2544439066559914E+00    7.1364550077169984E+00
O    6.9832174653023971E-01    2.0848147945131745E+00    5.0439516700078437E+00
O    4.8515335619788686E+00    3.3882285209929544E+00    7.2044556694027202E+00
O    3.3255809569769847E+00    7.6611584888781961E+00    4.9302362435018514E+00
O    1.9197551480161621E+00    3.3902691413856236E+00    6.8618317204578387E+00
O    6.9284381165476039E-01    7.6540233057291038E+00    5.1073133456723019E+00
Al    3.3829816995907227E+00    2.0848147976907994E+00    7.0163572957301064E+00
Al    6.8257202732247968E-01    6.2544439717444096E+00    4.0161587701291488E+00
Al    6.2302549949826680E-01    2.0848147793340304E+00    7.0230225911134969E+00
Al    2.1012381648249412E+00    2.0848147661434524E+00    2.0368168673286067E+00
Al    3.4793348072724761E+00    4.7955866639187166E+00    3.1031538092529845E+00
Al    3.4793348149584222E+00    7.7133011780977894E+00    3.1031537868051973E+00
Al    1.9924640820079496E+00    3.5436720424352326E+00    4.9221146499116752E+00
Al    4.8860724589965479E+00    6.4889579398155683E-01    1.1022937024239772E+00
Al    4.8860724671194449E+00    3.5207337912784324E+00    1.1022936651701205E+00
Al    5.8572642409949904E-01    7.6903629224317509E+00    6.9229748269385718E+00
O    6.4101993436491389E-01    2.0848147745233550E+00    9.8707674020516700E-01
O    2.1210222621495358E+00    6.2544438956356041E+00    2.8878905515421263E+00
O    3.5259355756283273E+00    2.0848147863558752E+00    8.8881358535581345E-01
O    4.7734771193735748E+00    6.2544439242164342E+00    2.9813168107879466E+00
O    6.2026533000363981E-01    7.5578576504611270E+00    8.2081289831135296E-01
O    6.2026532606387519E-01    4.9510301713470470E+00    8.2081288085873871E-01
O    4.8515335532562194E+00    7.8140104168701208E-01    7.2044556705099314E+00
O    2.1462180132185367E+00    3.4915293580305846E+00    3.0950321888696819E+00
O    2.1462179772822716E+00    6.7810018539532957E-01    3.0950322149470515E+00
O    3.3255809644161767E+00    4.8477292988751310E+00    4.9302362608243202E+00
O    3.5520437937022278E+00    7.5598982892372426E+00    1.1634368116976279E+00
O    3.5520437898623092E+00    4.9489895614578208E+00    1.1634368015745957E+00
O    1.9197551514203477E+00    7.7936043454958648E-01    6.8618317421997004E+00
O    4.7789552486294591E+00    3.4843942085258286E+00    2.9179551517674374E+00
O    4.7789551998340913E+00    6.8523541651473507E-01    2.9179551733499198E+00
O    6.9284381878382584E-01    4.8548646001093472E+00    5.1073133367870041E+00
Al    7.6346989884046970E+00    6.2544439050782010E+00    1.0089112579005253E+00
Al    1.0335108679239765E+01    2.0848148058711198E+00    4.0091096622426781E+00
Al    1.0394655233132978E+01    6.2544439016636169E+00    1.0022458847487343E+00
Al    8.9164425079115368E+00    6.2544438963518969E+00    5.9884516158329557E+00
Al    7.5383459507898589E+00    6.2595754386302926E-01    4.9221146838695979E+00
Al    6.1316082939026773E+00    4.8185249435003055E+00    6.9229748441111214E+00
O    1.0376660789081564E+01    6.2544439117574218E+00    7.0381917587513332E+00
O    8.8966584260975576E+00    2.0848147530417420E+00    5.1373779196219198E+00
O    7.4917451643292496E+00    6.2544439014181545E+00    7.1364550245198348E+00
O    6.2442035982330415E+00    2.0848147842858626E+00    5.0439516939216453E+00
O    1.0397415399900479E+01    3.3882284953841872E+00    7.2044556541069475E+00
O    8.8714628056008742E+00    7.6611584843148295E+00    4.9302362558383317E+00
O    7.4656370088790593E+00    3.3902691339900675E+00    6.8618317160339286E+00
O    6.2387256689213739E+00    7.6540232986096992E+00    5.1073133553977259E+00
Al    8.9288635401321379E+00    2.0848147685378957E+00    7.0163572728602972E+00
Al    6.2284538761979311E+00    6.2544439607453448E+00    4.0161587903847842E+00
Al    6.1689073313218463E+00    2.0848147897260367E+00    7.0230225926589043E+00
Al    7.6471200070481542E+00    2.0848147503184631E+00    2.0368168598969816E+00
Al    9.0252166595539567E+00    4.7955866656276847E+00    3.1031537966676415E+00
Al    9.0252166654896868E+00    7.7133011551531228E+00    3.1031538036861241E+00
Al    7.5383459407501343E+00    3.5436720257820156E+00    4.9221146350888407E+00
Al    1.0431954280244483E+01    6.4889577205400384E-01    1.1022936823044709E+00
Al    1.0431954277064222E+01    3.5207337627821209E+00    1.1022936381702082E+00
Al    6.1316082942118264E+00    7.6903629229685908E+00    6.9229748383678436E+00
O    6.1869017884115278E+00    2.0848147875805516E+00    9.8707674866129103E-01
O    7.6669041137900287E+00    6.2544438861929583E+00    2.8878905707998572E+00
O    9.0718174130271514E+00    2.0848147658122778E+00    8.8881356361513786E-01
O    1.0319358973337838E+01    6.2544439136700927E+00    2.9813167948413519E+00
O    6.1661471917623505E+00    7.5578576582848846E+00    8.2081291437252646E-01
O    6.1661471818918123E+00    4.9510301815319506E+00    8.2081290625451020E-01
O    1.0397415394758202E+01    7.8140103129520100E-01    7.2044556488563893E+00
O    7.6920998598837267E+00    3.4915293450183427E+00    3.0950321774230187E+00
O    7.6920998147562338E+00    6.7810016658986838E-01    3.0950322082665975E+00
O    8.8714628147671277E+00    4.8477292954901392E+00    4.9302362549962968E+00
O    9.0979256335588925E+00    7.5598982675991966E+00    1.1634368113114431E+00
O    9.0979256318491188E+00    4.9489895529432886E+00    1.1634367972861239E+00
O    7.4656370026446073E+00    7.7936043560090140E-01    6.8618317412151635E+00
O    1.0324837071786975E+01    3.4843941808027319E+00    2.9179551254561975E+00
O    1.0324837031620687E+01    6.8523540063639110E-01    2.9179551559946066E+00
O    6.2387256669287572E+00    4.8548645851991976E+00    5.1073133406528797E+00
Al    2.0888171621627989E+00    1.4593702188156525E+01    1.0089112645335847E+00
Al    4.7892268666166755E+00    1.0424073078606590E+01    4.0091096954498937E+00
Al    4.8487734009553600E+00    1.4593702182413628E+01    1.0022459187311146E+00
Al    3.3705606914819035E+00    1.4593702168605283E+01    5.9884516210962939E+00
Al    1.9924641309202582E+00    8.9652158299914504E+00    4.9221146735910795E+00
Al    5.8572642604479519E-01    1.3157783213678286E+01    6.9229748542527272E+00
O    4.8307789736333042E+00    1.4593702179658701E+01    7.0381917839028629E+00
O    3.3507766103759762E+00    1.0424073019708395E+01    5.1373779613116977E+00
O    1.9458633412746784E+00    1.4593702177542028E+01    7.1364550296255356E+00
O    6.9832177468800338E-01    1.0424073069153808E+01    5.0439516867121013E+00
O    4.8515335976182827E+00    1.1727486787208155E+01    7.2044556932713073E+00
O    3.3255810073308751E+00    1.6000416757807329E+01    4.9302362626050495E+00
O    1.9197551935081481E+00    1.1729527406410378E+01    6.8618317474112960E+00
O    6.9284386040217427E-01    1.5993281535333599E+01    5.1073133774070181E+00
Al    3.3829817424549651E+00    1.0424073048378848E+01    7.0163573169955518E+00
Al    6.8257204858393361E-01    1.4593702200519251E+01    4.0161587981607987E+00
Al    6.2302554971712421E-01    1.0424073057442385E+01    7.0230226383906711E+00
Al    2.1012382159304059E+00    1.0424073045763894E+01    2.0368168885490250E+00
Al    3.4793348144417555E+00    1.3134844921121399E+01    3.1031538100921878E+00
Al    3.4793348684388397E+00    1.6052559443402203E+01    3.1031538229772857E+00
Al    1.9924641207083422E+00    1.1882930303041688E+01    4.9221146822117294E+00
Al    4.8860725261469371E+00    8.9881540515092126E+00    1.1022937058636060E+00
Al    4.8860725057671859E+00    1.1859992039056895E+01    1.1022936939461163E+00
Al    5.8572644912577321E-01    1.6029621184293934E+01    6.9229748519905838E+00
O    6.4101997939640809E-01    1.0424073047165097E+01    9.8707676075663875E-01
O    2.1210222810118395E+00    1.4593702159054475E+01    2.8878905769370653E+00
O    3.5259356220084821E+00    1.0424073040948311E+01    8.8881360899697603E-01
O    4.7734771479187730E+00    1.4593702184479255E+01    2.9813168324623391E+00
O    6.2026534649938225E-01    1.5897115919405506E+01    8.2081290545736385E-01
O    6.2026535331489818E-01    1.3290288440140760E+01    8.2081290335003521E-01
O    4.8515335929638184E+00    9.1206593200441528E+00    7.2044556897427618E+00
O    2.1462180289090043E+00    1.1830787624419008E+01    3.0950322146522589E+00
O    2.1462180140811276E+00    9.0173584563591334E+00    3.0950322024826709E+00
O    3.3255809872612279E+00    1.3186987568821518E+01    4.9302362721216877E+00
O    3.5520438210336556E+00    1.5899156549408577E+01    1.1634368306728999E+00
O    3.5520438103682501E+00    1.3288247819315135E+01    1.1634368227256793E+00
O    1.9197551785919627E+00    9.1186186920958043E+00    6.8618317460337783E+00
O    4.7789552593345883E+00    1.1823652460537037E+01    2.9179551721483401E+00
O    4.7789552445746128E+00    9.0244936572072199E+00    2.9179551861007154E+00
O    6.9284384050882186E-01    1.3194122845621422E+01    5.1073133708626113E+00
Al    7.6346990113737689E+00    1.4593702205650354E+01    1.0089112823142496E+00
Al    1.0335108711316281E+01    1.0424073060818284E+01    4.0091096761414313E+00
Al    1.0394655247437059E+01    1.4593702157852295E+01    1.0022458910297656E+00
Al    8.9164425399676244E+00    1.4593702158369748E+01    5.9884516258748706E+00
Al    7.5383459730433264E+00    8.9652158240685083E+00    4.9221146642482099E+00
Al    6.1316083168089071E+00    1.3157783216743869E+01    6.9229748741722883E+00
O    1.0376660809836446E+01    1.4593702170513408E+01    7.0381917769163644E+00
O    8.8966584528139041E+00    1.0424073005378879E+01    5.1373779324807547E+00
O    7.4917451960797790E+00    1.4593702172296251E+01    7.1364550464139587E+00
O    6.2442036264022969E+00    1.0424073058949222E+01    5.0439517106124416E+00
O    1.0397415435532253E+01    1.1727486761569271E+01    7.2044556779787747E+00
O    8.8714628559704209E+00    1.6000416753248828E+01    4.9302362749504400E+00
O    7.4656370543898518E+00    1.1729527399020240E+01    6.8618317429730666E+00
O    6.2387257176696131E+00    1.5993281528212604E+01    5.1073133871292278E+00
Al    8.9288635829952465E+00    1.0424073019192466E+01    7.0163572941158785E+00
Al    6.2284538974474550E+00    1.4593702189522748E+01    4.0161588184036461E+00
Al    6.1689073815406195E+00    1.0424073067852801E+01    7.0230226399104358E+00
Al    7.6471200581555108E+00    1.0424073029961697E+01    2.0368168811131047E+00
Al    9.0252166667609384E+00    1.3134844922839211E+01    3.1031537975075416E+00
Al    9.0252167189927874E+00    1.6052559420460177E+01    3.1031538398642864E+00
Al    7.5383459794754648E+00    1.1882930286385069E+01    4.9221146673810559E+00
Al    1.0431954347366570E+01    8.9881540295778066E+00    1.1022936857210999E+00
Al    1.0431954315720954E+01    1.1859992010560271E+01    1.1022936669682497E+00
Al    6.1316083192394526E+00    1.6029621184824673E+01    6.9229748634158694E+00
O    6.1869018334455195E+00    1.0424073060238428E+01    9.8707676920070164E-01
O    7.6669041326558744E+00    1.4593702149615995E+01    2.8878905961931993E+00
O    9.0718174593941630E+00    1.0424073020424512E+01    8.8881358724637671E-01
O    1.0319359001888794E+01    1.4593702173931845E+01    2.9813168165252386E+00
O    6.1661472082440083E+00    1.5897115927230040E+01    8.2081292150729457E-01
O    6.1661472091371277E+00    1.3290288450316980E+01    8.2081292873026557E-01
O    1.0397415434463539E+01    9.1206593096309518E+00    7.2044556680930665E+00
O    7.6920998755983598E+00    1.1830787611417421E+01    3.0950322031939304E+00
O    7.6920998515387335E+00    9.0173584375596878E+00    3.0950321957894578E+00
O    8.8714628376473783E+00    1.3186987565430957E+01    4.9302362663021206E+00
O    9.0979256609063981E+00    1.5899156527779486E+01    1.1634368302951412E+00
O    9.0979256523603222E+00    1.3288247810807515E+01    1.1634368184393789E+00
O    7.4656370298100123E+00    9.1186186931582505E+00    6.8618317450430144E+00
O    1.0324837082501269E+01    1.1823652432802783E+01    2.9179551458511126E+00
O    1.0324837076341186E+01    9.0244936413242929E+00    2.9179551687348719E+00
O    6.2387256886813685E+00    1.3194122830721124E+01    5.1073133747017483E+00
Al    2.0147302377043141E+00    6.2544438689920492E+00    9.0341785650643995E+00
Al    4.7151399661191409E+00    2.0848148038289751E+00    1.2034377004472162E+01
Al    4.7746864900190831E+00    6.2544439202030242E+00    9.0275132460378131E+00
Al    3.2964738083836962E+00    6.2544438923080810E+00    1.4013718918533451E+01
Al    1.9183772381979578E+00    6.2595753496456463E-01    1.2947382034832586E+01
Al    5.1163955381231363E-01    4.8185249182236118E+00    1.4948242139527443E+01
O    4.7566920979786147E+00    6.2544439124945859E+00    1.5063459086295266E+01
O    3.2766897126725558E+00    2.0848147521954061E+00    1.3162645275897061E+01
O    1.8717764670690491E+00    6.2544438939933427E+00    1.5161722312053969E+01
O    6.2423487238950193E-01    2.0848147750405470E+00    1.3069219003429669E+01
O    4.7774467010157595E+00    3.3882285088917490E+00    1.5229722977278358E+01
O    3.2514940947044195E+00    7.6611584788066684E+00    1.2955503562120752E+01
O    1.8456682843909062E+00    3.3902691234326650E+00    1.4887099042586970E+01
O    6.1875693935120279E-01    7.6540232911981141E+00    1.3132580669852082E+01
Al    3.3088948524118984E+00    2.0848147885877304E+00    1.5041624616294678E+01
Al    6.0848515187283603E-01    6.2544439586532050E+00    1.2041426091756204E+01
Al    5.4893863861255521E-01    2.0848147494276343E+00    1.5048289909861058E+01
Al    2.0271512688539590E+00    2.0848147535312518E+00    1.0062084211216762E+01
Al    3.4052479265079492E+00    4.7955866507117335E+00    1.1128421111937792E+01
Al    3.4052479458550664E+00    7.7133011641812690E+00    1.1128421102419930E+01
Al    1.9183772079113830E+00    3.5436720282212608E+00    1.2947381992442271E+01
Al    4.8119855511036853E+00    6.4889579185530855E-01    9.1275610098450848E+00
Al    4.8119855749936811E+00    3.5207337571398201E+00    9.1275609959404811E+00
Al    5.1163954893598540E-01    7.6903629057247098E+00    1.4948242148070733E+01
O    5.6693304653353493E-01    2.0848147574162512E+00    9.0123440748406942E+00
O    2.0469353861418167E+00    6.2544438832233178E+00    1.0913157872834130E+01
O    3.4518486686857797E+00    2.0848147733637239E+00    8.9140809219770674E+00
O    4.6993902445673825E+00    6.2544439107546053E+00    1.1006584130612984E+01
O    5.4617844851850672E-01    7.5578576356809624E+00    8.8460802275258263E+00
O    5.4617843091422991E-01    4.9510301600825777E+00    8.8460802033997794E+00
O    4.7774466957787665E+00    7.8140102450419546E-01    1.5229722988703072E+01
O    2.0721311254137511E+00    3.4915293473790765E+00    1.1120299522057605E+01
O    2.0721311039712802E+00    6.7810016985293997E-01    1.1120299552387541E+01
O    3.2514941007240727E+00    4.8477292831384373E+00    1.2955503574994440E+01
O    3.4779569101431189E+00    7.5598982766017215E+00    9.1887041358828085E+00
O    3.4779568965366927E+00    4.9489895468560814E+00    9.1887041194569523E+00
O    1.8456682876852244E+00    7.7936041683589641E-01    1.4887099065410153E+01
O    4.7048683682016588E+00    3.4843941965391587E+00    1.0943222479217997E+01
O    4.7048683237529350E+00    6.8523540726744336E-01    1.0943222484292631E+01
O    6.1875695082655147E-01    4.8548645822836480E+00    1.3132580656162594E+01
Al    7.5606120869189963E+00    6.2544438864982723E+00    9.0341785828607559E+00
Al    1.0261021810814844E+01    2.0848147860301340E+00    1.2034376985152621E+01
Al    1.0320568336510849E+01    6.2544438956227228E+00    9.0275132183141711E+00
Al    8.8423556568645427E+00    6.2544438820599861E+00    1.4013718923312696E+01
Al    7.4642590803375830E+00    6.2595752902422896E-01    1.2947382025477811E+01
Al    6.0575214445869010E+00    4.8185249212718277E+00    1.4948242159457410E+01
O    1.0302573934186004E+01    6.2544439033596948E+00    1.5063459079316425E+01
O    8.8225715551224546E+00    2.0848147378367825E+00    1.3162645247070873E+01
O    7.4176583218747618E+00    6.2544438887396074E+00    1.5161722328848239E+01
O    6.1701167241064541E+00    2.0848147648240065E+00    1.3069219027341157E+01
O    1.0323328538913247E+01    3.3882284832690748E+00    1.5229722961983622E+01
O    8.7973759433421126E+00    7.6611584742304091E+00    1.2955503574463362E+01
O    7.3915501452771935E+00    3.3902691160172833E+00    1.4887099038160452E+01
O    6.1646387966219942E+00    7.6540232840622462E+00    1.3132580679575376E+01
Al    8.8547766929534237E+00    2.0848147593889554E+00    1.5041624593427523E+01
Al    6.1543670007470386E+00    6.2544439476364468E+00    1.2041426112005469E+01
Al    6.0948204704288180E+00    2.0848147598197349E+00    1.5048289911379866E+01
Al    7.5730331110940394E+00    2.0848147377231601E+00    1.0062084203786767E+01
Al    8.9511297788316995E+00    4.7955866524244160E+00    1.1128421099357711E+01
Al    8.9511297964069190E+00    7.7133011412331678E+00    1.1128421119308978E+01
Al    7.4642590666878528E+00    3.5436720115495985E+00    1.2947381977623674E+01
Al    1.0357867372341934E+01    6.4889576991598930E-01    9.1275609896955654E+00
Al    1.0357867384970648E+01    3.5207337286413560E+00    9.1275609689453194E+00
Al    6.0575214190507447E+00    7.6903629062512717E+00    1.4948242159491452E+01
O    6.1128149005794619E+00    2.0848147704986419E+00    9.0123440833081343E+00
O    7.5928172377942866E+00    6.2544438737746031E+00    1.0913157892097086E+01
O    8.9977305060873096E+00    2.0848147528422563E+00    8.9140809002273187E+00
O    1.0245272098542101E+01    6.2544439002081234E+00    1.1006584114663600E+01
O    6.0920603102720552E+00    7.5578576435250273E+00    8.8460802435998307E+00
O    6.0920602867235605E+00    4.9510301702726709E+00    8.8460802287943352E+00
O    1.0323328537283681E+01    7.8140101411035467E-01    1.5229722967065909E+01
O    7.6180129721061824E+00    3.4915293343735860E+00    1.1120299510617315E+01
O    7.6180129414384039E+00    6.7810015104342569E-01    1.1120299545685510E+01
O    8.7973759511123788E+00    4.8477292797384095E+00    1.2955503569179204E+01
O    9.0238387500177524E+00    7.5598982549639935E+00    9.1887041354988952E+00
O    9.0238387385376075E+00    4.9489895383432909E+00    9.1887041151714755E+00
O    7.3915501389123150E+00    7.7936041786398813E-01    1.4887099064413434E+01
O    1.0250750191378030E+01    3.4843941687966788E+00    1.0943222452904338E+01
O    1.0250750155529506E+01    6.8523539136657519E-01    1.0943222466918556E+01
O    6.1646387989987668E+00    4.8548645673665174E+00    1.3132580660014776E+01
Al    2.0147302606964015E+00    1.4593702169604196E+01    9.0341785895038509E+00
Al    4.7151399982691826E+00    1.0424073058742502E+01    1.2034377018357619E+01
Al    4.7746865043566755E+00    1.4593702176384948E+01    9.0275132523430575E+00
Al    3.2964738404034990E+00    1.4593702154375650E+01    1.4013718928579651E+01
Al    1.9183772605820846E+00    8.9652158151493460E+00    1.2947382015251335E+01
Al    5.1163957666499382E-01    1.3157783191463233E+01    1.4948242169570372E+01
O    4.7566921187161384E+00    1.4593702171273787E+01    1.5063459104440552E+01
O    3.2766897394757724E+00    1.0424073004515519E+01    1.3162645288767990E+01
O    1.8717764987837922E+00    1.4593702164881194E+01    1.5161722333945912E+01
O    6.2423490063420417E-01    1.0424073049674289E+01    1.3069219020128791E+01
O    4.7774467366335864E+00    1.1727486775077494E+01    1.5229723001102636E+01
O    3.2514941449865860E+00    1.6000416747793437E+01    1.2955503581246054E+01
O    1.8456683299029499E+00    1.1729527388455370E+01    1.4887099069531354E+01
O    6.1875698801911971E-01    1.5993281520790168E+01    1.3132580701590276E+01
Al    3.3088948952796984E+00    1.0424073039238381E+01    1.5041624637561632E+01
Al    6.0848517314234030E-01    1.4593702187398831E+01    1.2041426119789593E+01
Al    5.4893868883830965E-01    1.0424073027534028E+01    1.5048289957094724E+01
Al    2.0271513200108475E+00    1.0424073033175885E+01    1.0062084232468937E+01
Al    3.4052479337332437E+00    1.3134844907917280E+01    1.1128421112800970E+01
Al    3.4052479993422056E+00    1.6052559429504992E+01    1.1128421138638267E+01
Al    1.9183772466966305E+00    1.1882930288824905E+01    1.2947382024778110E+01
Al    4.8119856182665552E+00    8.9881540493847307E+00    9.1275610132739526E+00
Al    4.8119856136847803E+00    1.1859992004919906E+01    9.1275610247547831E+00
Al    5.1163957397142845E-01    1.6029621167594090E+01    1.4948242173136443E+01
O    5.6693309160491490E-01    1.0424073030049811E+01    9.0123440954281424E+00
O    2.0469354050205615E+00    1.4593702146642448E+01    1.0913157898253969E+01
O    3.4518487150838846E+00    1.0424073027976840E+01    8.9140809456294843E+00
O    4.6993902731316632E+00    1.4593702171033867E+01    1.1006584152313708E+01
O    5.4617846501062450E-01    1.5897115904639779E+01    8.8460802346731455E+00
O    5.4617845819819555E-01    1.3290288428869131E+01    8.8460802259223179E+00
O    4.7774467354905186E+00    9.1206593028397105E+00    1.5229723007919759E+01
O    2.0721311411699732E+00    1.1830787613762633E+01    1.1120299547874870E+01
O    2.0721311408309293E+00    9.0173584408345508E+00    1.1120299539944844E+01
O    3.2514941236153350E+00    1.3186987553116039E+01    1.2955503586312741E+01
O    3.4779569375012684E+00    1.5899156536769819E+01    9.1887041548863433E+00
O    3.4779569170801796E+00    1.3288247804708877E+01    9.1887041406384178E+00
O    1.8456683148887270E+00    9.1186186743688111E+00    1.4887099069252264E+01
O    4.7048683789502297E+00    1.1823652448526580E+01    1.0943222499630158E+01
O    4.7048683685424981E+00    9.0244936479121378E+00    1.0943222497033741E+01
O    6.1875697258404472E-01    1.3194122827766767E+01    1.3132580690213864E+01
Al    7.5606121099150014E+00    1.4593702187094593E+01    9.0341786072836978E+00
Al    1.0261021842979188E+01    1.0424073040953289E+01    1.2034376999053201E+01
Al    1.0320568350846695E+01    1.4593702151798507E+01    9.0275132246275884E+00
Al    8.8423556888897004E+00    1.4593702144106111E+01    1.4013718933344666E+01
Al    7.4642591027093763E+00    8.9652158092091430E+00    1.2947382005901765E+01
Al    6.0575214674332694E+00    1.3157783194517068E+01    1.4948242189464283E+01
O    1.0302573954921911E+01    1.4593702162144739E+01    1.5063459097468218E+01
O    8.8225715819152342E+00    1.0424072990184523E+01    1.3162645259935754E+01
O    7.4176583535922598E+00    1.4593702159622303E+01    1.5161722350722769E+01
O    6.1701167523486129E+00    1.0424073039447732E+01    1.3069219044011911E+01
O    1.0323328574543643E+01    1.1727486749465410E+01    1.5229722985828973E+01
O    8.7973759936080000E+00    1.6000416743188318E+01    1.2955503593562590E+01
O    7.3915501907842547E+00    1.1729527381052579E+01    1.4887099065075951E+01
O    6.1646388452817087E+00    1.5993281513667343E+01    1.3132580711291862E+01
Al    8.8547767358207796E+00    1.0424073010077718E+01    1.5041624614683951E+01
Al    6.1543670220217006E+00    1.4593702176399539E+01    1.2041426140022534E+01
Al    6.0948205206520880E+00    1.0424073037934606E+01    1.5048289958588441E+01
Al    7.5730331622450882E+00    1.0424073017338495E+01    1.0062084225026233E+01
Al    8.9511297860555992E+00    1.3134844909616886E+01    1.1128421100193387E+01
Al    8.9511298498703500E+00    1.6052559406548102E+01    1.1128421155489256E+01
Al    7.4642591054735403E+00    1.1882930272154420E+01    1.2947382009924588E+01
Al    1.0357867439502114E+01    8.9881540274378580E+00    9.1275609931408734E+00
Al    1.0357867423643453E+01    1.1859991976396495E+01    9.1275609977533563E+00
Al    6.0575214440739202E+00    1.6029621168116599E+01    1.4948242184540266E+01
O    6.1128149456533469E+00    1.0424073043145865E+01    9.0123441038885019E+00
O    7.5928172566780274E+00    1.4593702137186867E+01    1.0913157917484234E+01
O    8.9977305524806930E+00    1.0424073007430469E+01    8.9140809238763641E+00
O    1.0245272127104121E+01    1.4593702160469064E+01    1.1006584136351037E+01
O    6.0920603267633009E+00    1.5897115912474645E+01    8.8460802507385594E+00
O    6.0920603140184548E+00    1.3290288439064602E+01    8.8460802513129000E+00
O    1.0323328576991555E+01    9.1206592924544800E+00    1.5229722986276942E+01
O    7.6180129878618255E+00    1.1830787600748890E+01    1.1120299536402825E+01
O    7.6180129782990438E+00    9.0173584220164322E+00    1.1120299533247259E+01
O    8.7973759740167701E+00    1.3186987549705016E+01    1.2955503580473954E+01
O    9.0238387773717967E+00    1.5899156515122440E+01    9.1887041544856345E+00
O    9.0238387590736728E+00    1.3288247796180674E+01    9.1887041363321433E+00
O    7.3915501661091865E+00    9.1186186754168297E+00    1.4887099068249213E+01
O    1.0250750202128348E+01    1.1823652420777504E+01    1.0943222473309799E+01
O    1.0250750200317844E+01    9.0244936320285500E+00    1.0943222479676624E+01
O    6.1646388207643854E+00    1.3194122812854369E+01    1.3132580694039532E+01
     &END COORD
     &KIND Al
       BASIS_SET DZVP-MOLOPT-SR-GTH-q3
       POTENTIAL GTH-PBE-q3
       &POTENTIAL
 2 1
  0.4500000000000000E+00 1 -0.7554761260000000E+01
 2
  0.4874352900000000E+00 2  0.6959938320000000E+01 -0.1888835840000000E+01
  0.2438476590000000E+01
  0.5621894900000000E+00 1  0.1865298570000000E+01
         # Potential name:  GTH-PBE-Q3  for symbol:  AL
         # Potential read from the potential filename: ../../cp2k-data/GTH_POTENTIALS
       &END POTENTIAL
     &END KIND
     &KIND O
       BASIS_SET DZVP-MOLOPT-SR-GTH-q6
       POTENTIAL GTH-PBE-q6
       &POTENTIAL
 2 4
  0.2445543000000000E+00 2 -0.1666721480000000E+02  0.2487311320000000E+01
 2
  0.2209559200000000E+00 1  0.1833745811000000E+02
  0.2113324700000000E+00 0
         # Potential name:  GTH-PBE-Q6  for symbol:  O
         # Potential read from the potential filename: ../../cp2k-data/GTH_POTENTIALS
       &END POTENTIAL
     &END KIND
     &TOPOLOGY
       COORD_FILE_NAME alumina_unrlxd.xyz
       COORD_FILE_FORMAT  XYZ
       NUMBER_OF_ATOMS  320
       MULTIPLE_UNIT_CELL  1 1 1
     &END TOPOLOGY
   &END SUBSYS
 &END FORCE_EVAL
