 # Version information for this restart file 
 # current date 2025-01-24 00:07:12.289
 # current working dir /scratch4/nmitra1/silica_cp2k/1000_70_cell222/epoxyadsorb_zslab/dftd3bjrelax
 # Program compiled at                              Wed May 17 21:13:02 EDT 2023
 # Program compiled on                                                      c718
 # Program compiled for                            linux-centos8-cascadelake-gcc
 # Source code revision number                                       git:a8a26f8
 &GLOBAL
   EXTENDED_FFT_LENGTHS  T
   PRINT_LEVEL  MEDIUM
   PROJECT_NAME Silicazslab_epoxy
   RUN_TYPE  GEO_OPT
 &END GLOBAL
 &MOTION
   &GEO_OPT
     TYPE  MINIMIZATION
     OPTIMIZER  BFGS
     MAX_ITER  2000
     MAX_FORCE     1.9000000000000001E-05
     STEP_START_VAL  500
     &PRINT
       &PROGRAM_RUN_INFO  SILENT
         FILENAME ./geom_opt
       &END PROGRAM_RUN_INFO
     &END PRINT
   &END GEO_OPT
 &END MOTION
 &FORCE_EVAL
   METHOD  QS
   STRESS_TENSOR  ANALYTICAL
   &DFT
     BASIS_SET_FILE_NAME ../../../cp2k-data/BASIS_MOLOPT
     POTENTIAL_FILE_NAME ../../../cp2k-data/GTH_POTENTIALS
     MULTIPLICITY  1
     CHARGE  0
     SURFACE_DIPOLE_CORRECTION  T
     SURF_DIP_DIR  Z
     SURF_DIP_POS     5.8000000000000000E+01
     &SCF
       MAX_SCF  500
       EPS_SCF     1.0000000000000000E-08
       SCF_GUESS  ATOMIC
       &OT  T
         MINIMIZER  CG
       &END OT
       &OUTER_SCF  T
         EPS_SCF     1.0000000000000000E-08
         MAX_SCF  20
       &END OUTER_SCF
       &MIXING  T
         METHOD  BROYDEN_MIXING
         ALPHA     2.9999999999999999E-01
         NBUFFER  10
       &END MIXING
     &END SCF
     &QS
       EPS_DEFAULT     9.9999999999999998E-13
       EXTRAPOLATION  USE_PREV_P
       METHOD  GPW
     &END QS
     &MGRID
       CUTOFF     1.0000000000000000E+03
       REL_CUTOFF     7.0000000000000000E+01
     &END MGRID
     &XC
       DENSITY_CUTOFF     1.0000000000000000E-10
       GRADIENT_CUTOFF     1.0000000000000000E-10
       TAU_CUTOFF     1.0000000000000000E-10
       &XC_FUNCTIONAL  NO_SHORTCUT
         &PBE  T
         &END PBE
       &END XC_FUNCTIONAL
       &VDW_POTENTIAL
         POTENTIAL_TYPE  PAIR_POTENTIAL
         &PAIR_POTENTIAL
           R_CUTOFF     2.0000000000000004E+01
           TYPE  DFTD3(BJ)
           PARAMETER_FILE_NAME ../../../cp2k-data/dftd3.dat
           REFERENCE_FUNCTIONAL PBE
           CALCULATE_C9_TERM  T
         &END PAIR_POTENTIAL
       &END VDW_POTENTIAL
     &END XC
     &POISSON
       POISSON_SOLVER  PERIODIC
       PERIODIC  XYZ
     &END POISSON
   &END DFT
   &SUBSYS
     &CELL
       A     1.9875420540000000E+01    0.0000000000000000E+00    0.0000000000000000E+00
       B     0.0000000000000000E+00    1.9875420540000000E+01    0.0000000000000000E+00
       C     0.0000000000000000E+00    0.0000000000000000E+00    6.0000000000000007E+01
       MULTIPLE_UNIT_CELL  1 1 1
     &END CELL
     &COORD
Si    1.3905002327666944E+00    1.2027332440726139E+00    2.3800169382330996E+01
O    7.2292064583370086E-01    2.5024550587281258E-01    2.4960287227931332E+01
Si    1.4120100683161314E+00    3.5534166612243450E+00    2.5764636510100399E+01
Si    4.0482806325119460E+00    3.3504939615221607E+00    2.7204763124400067E+01
Si    4.3776853204620760E+00    9.1902943838369322E-01    2.9014726923520726E+01
O    2.4410783493350587E+00    3.1684812617503324E+00    2.6971297994979338E+01
O    4.3414885260126876E+00    4.5464938635540477E+00    2.8276637700560570E+01
O    3.2273673222423778E+00    1.5146761248405280E+00    3.0004929597610072E+01
O    4.6673838607180169E+00    1.9663538912979961E+00    2.7796964304638458E+01
O    6.5072357070503073E-01    1.8032960957154016E+00    2.9360587755380134E+01
O    1.7630451047933149E+00    2.6761434234391421E+00    2.4425153371059366E+01
O    4.7614260723356265E+00    3.6862912176042362E+00    2.5775138981640389E+01
Si    6.3722478231701460E+00    1.8992071534256223E+00    2.3493784530502658E+01
O    6.2631558543738848E+00    1.0314463381535031E+00    2.4883444062657833E+01
Si    6.2027213569851849E+00    4.2786863897311376E+00    2.5270046297820173E+01
Si    8.6476109271901738E+00    3.6968345743228572E+00    2.7232120672920960E+01
Si    9.0669897300735531E+00    1.2926047765446285E+00    2.9049870895483288E+01
O    7.2916229065350811E+00    4.1397046998456011E+00    2.6463202890386523E+01
O    9.1941656760779704E+00    4.9880631972169525E+00    2.8068976938519242E+01
O    8.2960282639686618E+00    1.0205147322354506E+00    3.0461658279340519E+01
O    8.2740517318001476E+00    2.4535504887999409E+00    2.8222322637786608E+01
O    5.7509360379845331E+00    6.7002132264504777E-01    2.9841098654201815E+01
O    6.6699174259061467E+00    3.4540758462647050E+00    2.3935217984053370E+01
O    9.8210902829310331E+00    3.2036469767918936E+00    2.6212705057076473E+01
Si    1.1550179306931811E+00    6.0183560466228174E+00    2.4107436741560981E+01
O    1.6010748438694236E+00    5.1438497196281139E+00    2.5428239470669894E+01
Si    9.1062310682617420E-01    8.6761355725654230E+00    2.5555535118407626E+01
Si    3.6473445467173278E+00    8.5715120373873503E+00    2.7033012799964720E+01
Si    3.9311185077600928E+00    6.0842732931370840E+00    2.8617555638531194E+01
O    2.0541191992289090E+00    8.6543471498388982E+00    2.6711333245070261E+01
O    3.8894298062460466E+00    9.4216923535337695E+00    2.8398841467789005E+01
O    2.3691613774590774E+00    6.2050004937794467E+00    2.9068036124590119E+01
O    4.1079249165457572E+00    7.0239289246798364E+00    2.7290539851429223E+01
O   -8.2246787421474787E-02    6.6592924580124730E+00    2.9978759134568275E+01
O    1.3329663801790403E+00    7.6289794050659072E+00    2.4363913778874988E+01
O    4.5074586884089385E+00    9.1664347124012338E+00    2.5779372712914356E+01
Si    6.0697600057819594E+00    6.9441354827552511E+00    2.3678641229020606E+01
O    6.0062024788581843E+00    5.8497123793551076E+00    2.4894721353749226E+01
Si    6.0756119199864793E+00    9.4495051925161349E+00    2.5397878380209061E+01
Si    8.3762110214450693E+00    8.7112868847997635E+00    2.7340627549049326E+01
Si    8.6042107850244296E+00    6.1583972229268946E+00    2.9039057720691051E+01
O    6.9969196115083925E+00    9.3275983254690598E+00    2.6734415296107517E+01
O    9.1345381642397125E+00    9.8435530618053342E+00    2.8223507882150198E+01
O    7.3972505281190841E+00    5.5431724010458208E+00    2.9950489801777088E+01
O    7.9574924739698147E+00    7.4112043857723409E+00    2.8222726014081985E+01
O    4.9000710675259009E+00    6.6102379755073697E+00    2.9809042946817122E+01
O    6.5768864607623785E+00    8.3869037385100729E+00    2.4261629132938033E+01
O    9.4090475061473899E+00    8.2070601616323113E+00    2.6175092579041980E+01
Si    1.6958989926901678E+00    1.2937661193084482E+00    3.0511254794092046E+01
O    1.3581663868471896E+00   -2.7700380657927776E-01    3.0800466307728804E+01
Si    1.1686877457466978E+00    3.7104326498479003E+00    3.2246002769900187E+01
Si    3.4832268666145514E+00    3.7614203007236697E+00    3.4224285920923030E+01
Si    3.7019246590373784E+00    1.2785596239442683E+00    3.6014135310319993E+01
O    2.1175473625993280E+00    4.2375224342128917E+00    3.3461673256837621E+01
O    4.1483418749272021E+00    5.0529248420439368E+00    3.4954568217601235E+01
O    2.6012274853743236E+00    6.6601267746481896E-01    3.7029429237924305E+01
O    3.0418533357833737E+00    2.5825404808084360E+00    3.5258867118668817E+01
O    1.7989830412310670E-02    1.5678341353974981E+00    3.6626581099697162E+01
O    1.5227775260217664E+00    2.1604992313553306E+00    3.1884621569921382E+01
O    4.5962482271146161E+00    3.1614401036116901E+00    3.3187032538922928E+01
Si    6.7683445920731558E+00    1.1632284263822088E+00    3.1011951299182158E+01
O    6.6022369583267899E+00    2.1667749719784632E-01    3.2326781733296009E+01
Si    5.9865331024354660E+00    3.7464958621184294E+00    3.2564880388636496E+01
Si    8.6409683870216387E+00    3.4361680680688615E+00    3.4034583474655960E+01
Si    8.8542383291181910E+00    8.5358903454811585E-01    3.5669618003682871E+01
O    7.1093595491408061E+00    3.9204318289105187E+00    3.3746092215358985E+01
O    9.2552951354556949E+00    4.2101358222184810E+00    3.5343308201405755E+01
O    7.4713586875541900E+00    4.5493134395080942E-01    3.6406157367556325E+01
O    8.6667182877000837E+00    1.8370078889455774E+00    3.4359350808227099E+01
O    5.1071415195204848E+00    1.7058623527298744E+00    3.6767555200555755E+01
O    6.4984571443284933E+00    2.7176073634585127E+00    3.1412036013563498E+01
O    9.5256331811813499E+00    3.7774203619946385E+00    3.2706494828747324E+01
Si    1.4176727813754690E+00    6.1618295036983168E+00    3.0384597355899558E+01
O    1.4008678758217807E+00    4.6246182137181400E+00    3.0922339048686762E+01
Si    1.4010672998130724E+00    8.6177491807551210E+00    3.2074949077332363E+01
Si    3.6517910224111261E+00    8.7944626438314870E+00    3.4136950212884393E+01
Si    3.9369125006788321E+00    6.3681405674965106E+00    3.5903427194838230E+01
O    2.3932643901883397E+00    9.2363886212171469E+00    3.3208110613305720E+01
O    4.1488029391010359E+00    1.0088061147742657E+01    3.4997064375762399E+01
O    3.1436218289159132E+00    6.0006647130956310E+00    3.7267640175173476E+01
O    3.1566690453025026E+00    7.5681404057325281E+00    3.5094460155450456E+01
O    4.6850442269619264E-01    5.6862655289264774E+00    3.7078783542978762E+01
O    1.9674373976124813E+00    7.1775357105196971E+00    3.1542812158659267E+01
O    4.8946088507760024E+00    8.2750505082268973E+00    3.3221240580479495E+01
Si    6.1639868625005985E+00    6.2461029977447318E+00    3.0764172832139263E+01
O    5.6735446625149795E+00    5.2099827172353423E+00    3.1920542804032888E+01
Si    6.3936081085433383E+00    8.6027674792052977E+00    3.2684995604446677E+01
Si    9.0947024546937332E+00    8.2120401937614744E+00    3.4027630421210787E+01
Si    9.2995879170554172E+00    5.7922761469589252E+00    3.5837965858182031E+01
O    7.4706885902956008E+00    8.2718355756329043E+00    3.3856261703317898E+01
O    9.5432951862045652E+00    9.3326020065177566E+00    3.5133950909696644E+01
O    8.0088768657855649E+00    6.2002476105435891E+00    3.6721750860175611E+01
O    9.5107182072044925E+00    6.7046877877751019E+00    3.4480506791231129E+01
O    5.4726901280045155E+00    6.8637979243897016E+00    3.6261409972313317E+01
O    6.6934195769746561E+00    7.6564801529004871E+00    3.1390431638154858E+01
O    9.8192720611234510E+00    8.5505312210691802E+00    3.2602736840688443E+01
H    6.6737366260453017E+00    1.0380015892412198E+00    3.6488293273890179E+01
H    7.0894580442567223E+00    6.2830962010148932E+00    3.6371828409534864E+01
H    5.0130960263344768E+00    2.3069854533008707E+00    3.7539366803998014E+01
H    5.5792273730140138E+00    7.7850207566829281E+00    3.6556271844982369E+01
H    1.6588345927442067E+00    9.3579767567816030E-01    3.6888389497060977E+01
H    2.1674411023485121E+00    5.8652101708032793E+00    3.7159788408976290E+01
H    5.9146731140429433E-02    2.5380567221073895E+00    3.6511388917120463E+01
H    1.7115494747833401E-01    6.1305530193984561E+00    3.7891782023269961E+01
O    4.4621781222620943E-01    1.3390492609832927E+00    2.2496411946822409E+01
O    2.8500288779669520E+00    5.7006306189592981E-01    2.3335787619862714E+01
H    2.8724695983294950E+00   -3.7590898649033194E-01    2.3103759903150074E+01
O    2.2743196905726166E+00    5.7371687200434787E+00    2.2907056271361316E+01
H    2.3101968702204378E+00    4.8072858624408301E+00    2.2620065850293429E+01
O   -3.4646384782898493E-01    5.5343917097431126E+00    2.3751052756441787E+01
O    5.0917136772622662E+00    1.7506960887153202E+00    2.2518694044679833E+01
O    7.7013591777847727E+00    1.4568978992627162E+00    2.2601198705355859E+01
H    7.5023271869584844E+00    7.2900418391781907E-01    2.1987529004546843E+01
O    7.2887602172505055E+00    6.5452953130895608E+00    2.2616350113466520E+01
H    7.0727070597644248E+00    5.7956003750869929E+00    2.2035823708793842E+01
O    4.6524108157406534E+00    7.1455730901574892E+00    2.2915739817156823E+01
H   -5.2247728751410416E-01    1.5006866086181532E+00    2.2625942869803989E+01
H    4.2448754367717445E+00    1.3621163850871447E+00    2.2864852026684868E+01
H    3.8774732920249635E+00    6.5379062590174586E+00    2.3001814691575429E+01
H   -1.0331121225426403E+00    6.0725350083014416E+00    2.3291282017613199E+01
Si    1.1336490423877857E+01    1.1965478650474977E+00    2.3802604791582802E+01
O    1.0656211991729887E+01    2.3378584786044895E-01    2.4946557317626180E+01
Si    1.1354246558638200E+01    3.5475950143456565E+00    2.5776998441533436E+01
Si    1.3991107615423340E+01    3.3567274232946129E+00    2.7215528055400746E+01
Si    1.4317452641915759E+01    9.0970620398730284E-01    2.9008166955899480E+01
O    1.2384213189458132E+01    3.1659950537041350E+00    2.6984461497607295E+01
O    1.4280445222132640E+01    4.5576975378073676E+00    2.8283279619443942E+01
O    1.3173647617810140E+01    1.5039314964792871E+00    3.0006293369229322E+01
O    1.4618753049031481E+01    1.9755770603377247E+00    2.7808672422253661E+01
O    1.0594135887942217E+01    1.7831080712900254E+00    2.9365080240598104E+01
O    1.1705373776420654E+01    2.6640435187090330E+00    2.4442381344928563E+01
O    1.4698741598813340E+01    3.6962311852424752E+00    2.5783690845846458E+01
Si    1.6282968882150637E+01    1.9259036744978031E+00    2.3467593002225140E+01
O    1.6151518554870293E+01    1.0378623307092172E+00    2.4840796125485713E+01
Si    1.6136235910477524E+01    4.2904550198398104E+00    2.5271098754148579E+01
Si    1.8590690452469524E+01    3.7101536308276821E+00    2.7222066106214857E+01
Si    1.9002413241741625E+01    1.3069745041946845E+00    2.9039883103179331E+01
O    1.7230979558207697E+01    4.1494049221794640E+00    2.6458455872849939E+01
O    1.9156733417464380E+01    5.0085773963069418E+00    2.8036427151540902E+01
O    1.8232748747058164E+01    1.0066868743285278E+00    3.0447512540049836E+01
O    1.8212234420270867E+01    2.4808538016248050E+00    2.8228523714538515E+01
O    1.5688392003496688E+01    6.2385385561139495E-01    2.9829801958179711E+01
O    1.6597091103649394E+01    3.4705165412485979E+00    2.3931483421411105E+01
O    1.9755481325007938E+01    3.2015055184681591E+00    2.6200190221392578E+01
Si    1.1097302832733437E+01    6.0172682419561117E+00    2.4121325802765302E+01
O    1.1545770311637625E+01    5.1369668509836304E+00    2.5436793638723437E+01
Si    1.0843920590291608E+01    8.6804574777486305E+00    2.5568323164964692E+01
Si    1.3584509046958942E+01    8.5882592905559303E+00    2.7038816354074083E+01
Si    1.3868556633665701E+01    6.0960162089595160E+00    2.8623909257250148E+01
O    1.1991628565662007E+01    8.6914823150686278E+00    2.6720600398642816E+01
O    1.3845418171063869E+01    9.4389873564878197E+00    2.8400905045868512E+01
O    1.2311293100455703E+01    6.2078606253020281E+00    2.9087950857442152E+01
O    1.4028493177416944E+01    7.0356000172368631E+00    2.7294499437113487E+01
O    9.8462118408369985E+00    6.6944750349792423E+00    2.9946406465322472E+01
O    1.1277180733936680E+01    7.6260713129274826E+00    2.4386640866181569E+01
O    1.4445862136865411E+01    9.1712798788968506E+00    2.5780220349584656E+01
Si    1.6003250375345079E+01    6.9533681508005509E+00    2.3679200128650066E+01
O    1.5939906957557495E+01    5.8624430192201373E+00    2.4898826559029096E+01
Si    1.6014563420858362E+01    9.4526615006148980E+00    2.5402559734951048E+01
Si    1.8328340440274889E+01    8.7231996154863118E+00    2.7331454373768231E+01
Si    1.8565786163191028E+01    6.1567852657561435E+00    2.9032115379695522E+01
O    1.6932046058786092E+01    9.3167577743573684E+00    2.6740778029829407E+01
O    1.9093816213764068E+01    9.8775050026747397E+00    2.8179228930749858E+01
O    1.7338938609562430E+01    5.5176461297201325E+00    2.9901060540445307E+01
O    1.7938033900302308E+01    7.4364925292828623E+00    2.8243994456296065E+01
O    1.4856772973550553E+01    6.6305144900630761E+00    2.9798635473723547E+01
O    1.6513241042202026E+01    8.3969528363034858E+00    2.4258366338668765E+01
O    1.9343685351219772E+01    8.2129121060868187E+00    2.6153605919213753E+01
Si    1.1642907896319089E+01    1.2889145227000911E+00    3.0519502430491634E+01
O    1.1310944547895760E+01   -2.7873699452046063E-01    3.0833283448088366E+01
Si    1.1085771521389292E+01    3.7151617680152875E+00    3.2236978552600007E+01
Si    1.3419067926379707E+01    3.7846152040521845E+00    3.4176086008083189E+01
Si    1.3619372059985844E+01    1.3554733739262115E+00    3.6037902836334005E+01
O    1.2060439271163899E+01    4.2769970969992892E+00    3.3418669909125356E+01
O    1.4131064097367124E+01    5.0648115746067131E+00    3.4885425531021930E+01
O    1.2579045940559421E+01    8.4713139014436734E-01    3.7167539139444948E+01
O    1.2959703687488670E+01    2.6207783810895915E+00    3.5225639194232883E+01
O    9.9619208359986153E+00    1.5690727891352092E+00    3.6684497073021248E+01
O    1.1477200069861359E+01    2.1720379617335284E+00    3.1881987010809961E+01
O    1.4517983977190060E+01    3.1461154062998427E+00    3.3145070595385086E+01
Si    1.6703291275561984E+01    1.1361972881187690E+00    3.0994035782410858E+01
O    1.6543383006133606E+01    2.1179399118646725E-01    3.2326086541848383E+01
Si    1.5910492811072363E+01    3.7218782980464407E+00    3.2520497707300770E+01
Si    1.8572412095137285E+01    3.4105410810041761E+00    3.3980827043215257E+01
Si    1.8803116116852785E+01    8.4152098157112121E-01    3.5604978864215632E+01
O    1.7036728138861942E+01    3.8787813316553921E+00    3.3703395626487435E+01
O    1.9147969963458713E+01    4.1593925444389814E+00    3.5326771646203831E+01
O    1.7392084563111329E+01    4.6076601253920879E-01    3.6301308316079172E+01
O    1.8640955034517141E+01    1.8081473812279616E+00    3.4274475412711695E+01
O    1.5059206382878028E+01    1.8263669077079343E+00    3.6725049235603848E+01
O    1.6417142516152559E+01    2.6948001097727423E+00    3.1366697182476145E+01
O    1.9472491459813305E+01    3.8160222461006907E+00    3.2683856905852473E+01
Si    1.1327511543804444E+01    6.1653311017482286E+00    3.0380503262572656E+01
O    1.1267967730903699E+01    4.6238317879222253E+00    3.0900765883341730E+01
Si    1.1344050613942265E+01    8.6421092443730458E+00    3.2032284419338630E+01
Si    1.3629867767722146E+01    8.7824652798115057E+00    3.4060256584875489E+01
Si    1.3923615713329719E+01    6.3793993781525753E+00    3.5843638196092620E+01
O    1.2353535018237341E+01    9.2350594319312513E+00    3.3164507985102446E+01
O    1.4198321943255714E+01    1.0083415088025765E+01    3.4863623023478894E+01
O    1.3188221600675606E+01    5.9589774101778890E+00    3.7221550829859133E+01
O    1.3134779623160300E+01    7.5837943537041514E+00    3.5055365100508865E+01
O    1.0569223817229414E+01    5.9449663950179161E+00    3.6852308830725363E+01
O    1.1861480838814218E+01    7.1636085459945829E+00    3.1558966025080167E+01
O    1.4851256731632361E+01    8.2207753936920351E+00    3.3133688005845343E+01
Si    1.6124187537490862E+01    6.2284789672595098E+00    3.0734591120265186E+01
O    1.5616164076663367E+01    5.1886144682058699E+00    3.1880177583069212E+01
Si    1.6376021586956188E+01    8.5490363855797344E+00    3.2671009157679435E+01
Si    1.9031821984413678E+01    8.1754902765918693E+00    3.4111213834941402E+01
Si    1.9120422182345514E+01    5.6880011620923456E+00    3.5946869514253819E+01
O    1.7412029107324088E+01    8.1939540484294877E+00    3.3882681329880441E+01
O    1.9477538832220919E+01    9.3600425159377405E+00    3.5144272889610470E+01
O    1.7811857532509556E+01    6.0061692809455396E+00    3.6827484131890927E+01
O    1.9453836707900404E+01    6.7158853955665432E+00    3.4716386667850259E+01
O    1.5460175399526422E+01    6.9167380132556460E+00    3.6167806095736168E+01
O    1.6708986519727468E+01    7.6090242711325562E+00    3.1380155135030105E+01
O    1.9774582201118236E+01    8.4063985780331407E+00    3.2677724501266098E+01
H    1.6634813900703165E+01    1.0853642331381843E+00    3.6401439219933039E+01
H    1.6921070179400335E+01    6.2659942792843069E+00    3.6463634986632321E+01
H    1.4994100401689179E+01    2.5864304992352536E+00    3.7327034832521186E+01
H    1.5575181412858976E+01    7.8726075229270753E+00    3.6314774225245614E+01
H    1.1617666879910354E+01    1.0396624159519625E+00    3.7014551144201590E+01
H    1.2211336818014937E+01    5.7817891055754371E+00    3.7106722512794221E+01
H    1.0018742843480865E+01    2.5404460484805980E+00    3.6582120419419560E+01
H    1.0425430574176819E+01    6.7432208011131891E+00    3.7484069027087948E+01
O    1.0402748147029792E+01    1.3461261586239903E+00    2.2493016273345194E+01
O    1.2800184708820263E+01    5.6876746278410661E-01    2.3343633444809349E+01
H    1.2826196129188450E+01   -3.7527505172031056E-01    2.3104368114749754E+01
O    1.2213238550875507E+01    5.7430360204526707E+00    2.2915838640906092E+01
H    1.2249328380516721E+01    4.8151485268422114E+00    2.2622589218802243E+01
O    9.5953800480429887E+00    5.5347942743701921E+00    2.3764660868116497E+01
O    1.4999983464135770E+01    1.8092331082717403E+00    2.2490384215372057E+01
O    1.7613456970150771E+01    1.4840869863098622E+00    2.2576991268778631E+01
H    1.7414107259071887E+01    7.6786530460997626E-01    2.1949975503891967E+01
O    1.7220095053690184E+01    6.5506486250984066E+00    2.2615873799120038E+01
H    1.7000541451020702E+01    5.8014770508800435E+00    2.2036002680212079E+01
O    1.4585269875520698E+01    7.1537996664618095E+00    2.2917428097401562E+01
H    9.4320180169493142E+00    1.4978868319159295E+00    2.2622471641627747E+01
H    1.4165023917750167E+01    1.3937074183805518E+00    2.2834546006321819E+01
H    1.3811157922144963E+01    6.5450577886010031E+00    2.3005247965941926E+01
H    8.9109890231636815E+00    6.0713118978637350E+00    2.3299865580131904E+01
Si    1.4090953349191508E+00    1.1151535722537561E+01    2.3801956978179682E+01
O    7.5650966280835485E-01    1.0183441219365971E+01    2.4956150165492325E+01
Si    1.4106903600093865E+00    1.3515915434731001E+01    2.5764869652543016E+01
Si    4.0507692685189722E+00    1.3315113220239651E+01    2.7205481398788340E+01
Si    4.3721215894280272E+00    1.0856177940803947E+01    2.8987246780453766E+01
O    2.4417532462424218E+00    1.3149520444406443E+01    2.6974673647671395E+01
O    4.3570455097263183E+00    1.4497511168622125E+01    2.8290473870961531E+01
O    3.2400361503290513E+00    1.1440419707091849E+01    3.0006738458053885E+01
O    4.6480783453700134E+00    1.1913031262342082E+01    2.7775326856905963E+01
O    6.6064881724018254E-01    1.1738877667544630E+01    2.9369951551270422E+01
O    1.7618287981267542E+00    1.2626677558058351E+01    2.4433858635060687E+01
O    4.7732110589940788E+00    1.3661334134447621E+01    2.5782715925147656E+01
Si    6.3609387120094700E+00    1.1877126518773187E+01    2.3473773253661776E+01
O    6.2135518555356635E+00    1.0963509466411836E+01    2.4826958658716602E+01
Si    6.2224716384990755E+00    1.4243215894401997E+01    2.5286810725115316E+01
Si    8.6561332976521630E+00    1.3642031959096034E+01    2.7247401470499263E+01
Si    9.0538565161847355E+00    1.1237266600906322E+01    2.9060772363081618E+01
O    7.3035013044099424E+00    1.4119681516870772E+01    2.6490870794110410E+01
O    9.2314220251459993E+00    1.4909199264969143E+01    2.8104415647083460E+01
O    8.2835202276694719E+00    1.0985725229433649E+01    3.0478558222461263E+01
O    8.2627514392658323E+00    1.2388893798356369E+01    2.8217285031126075E+01
O    5.7674219740585491E+00    1.0600609200769618E+01    2.9774648053041972E+01
O    6.7012289716905444E+00    1.3407046207045481E+01    2.3964808986636189E+01
O    9.8203675443599465E+00    1.3146203520354867E+01    2.6218133257998865E+01
Si    1.1581406975668866E+00    1.5979403002708493E+01    2.4099312295833023E+01
O    1.6002228260088058E+00    1.5103403571506849E+01    2.5418700230758244E+01
Si    9.0883796260861149E-01    1.8623706391482685E+01    2.5565188384131122E+01
Si    3.6485353599522155E+00    1.8525390459241468E+01    2.7045054102766393E+01
Si    3.9509539656821699E+00    1.6038503656291358E+01    2.8627893170222478E+01
O    2.0569881732569439E+00    1.8629336524891009E+01    2.6717851435328964E+01
O    3.9056895097371673E+00    1.9356954686782718E+01    2.8420884250518423E+01
O    2.3963076794198170E+00    1.6142357520200935E+01    2.9104124334143513E+01
O    4.0921678514494939E+00    1.6970330838282191E+01    2.7290816456473145E+01
O   -6.5427194549143308E-02    1.6643102942344616E+01    2.9966104941969157E+01
O    1.3460088359414153E+00    1.7586982294739379E+01    2.4368701729980959E+01
O    4.5131016998322213E+00    1.9121895202253082E+01    2.5794462868130601E+01
Si    6.0794603747728431E+00    1.6899878367896068E+01    2.3677039734013892E+01
O    6.0348775826721850E+00    1.5812434012199780E+01    2.4899011088980110E+01
Si    6.0875541287631627E+00    1.9384002808224043E+01    2.5425075052888154E+01
Si    8.3963951382555315E+00    1.8626073807713823E+01    2.7351439042167044E+01
Si    8.6464996347161023E+00    1.6073360035625651E+01    2.9084872260801440E+01
O    6.9899047726901014E+00    1.9203312319689044E+01    2.6768016996681371E+01
O    9.1574155241133202E+00    1.9788586023534467E+01    2.8190376086351915E+01
O    7.4161870115655040E+00    1.5458235027791956E+01    2.9966519509925330E+01
O    8.0250539092356608E+00    1.7342477974649878E+01    2.8275457381205147E+01
O    4.9490781010230789E+00    1.6588214802057895E+01    2.9787609057024053E+01
O    6.5748107738359778E+00    1.8347146454283724E+01    2.4259034706177964E+01
O    9.4074816723494212E+00    1.8122986619772149E+01    2.6166209055764210E+01
Si    1.7079479504067427E+00    1.1232705558739781E+01    3.0521282277932745E+01
O    1.3625089959884182E+00    9.6678578339459857E+00    3.0828433026035029E+01
Si    1.1488031122025033E+00    1.3652945268978533E+01    3.2253977126434648E+01
Si    3.4627042707450557E+00    1.3725741067276052E+01    3.4215967810833547E+01
Si    3.6474566837892399E+00    1.1252727038099060E+01    3.6033403350378869E+01
O    2.0993029094643325E+00    1.4208725091670077E+01    3.3457963708682954E+01
O    4.1457127467296813E+00    1.5009068658495984E+01    3.4948622037877961E+01
O    2.5828764332379897E+00    1.0726953133039745E+01    3.7132315704653777E+01
O    3.0117546285607921E+00    1.2554647407082035E+01    3.5258548400983699E+01
O   -4.1338667912528423E-02    1.1478733022444517E+01    3.6637722810966039E+01
O    1.5467630580574276E+00    1.2114940551014682E+01    3.1887085629587261E+01
O    4.5660846243380266E+00    1.3108784031336951E+01    3.3179628823301741E+01
Si    6.7362414383525513E+00    1.1111027234760906E+01    3.0977323770306668E+01
O    6.5188934229751094E+00    1.0182854581672302E+01    3.2294679861404163E+01
Si    5.9453639929798880E+00    1.3683015432809846E+01    3.2524470373009208E+01
Si    8.6167624704727128E+00    1.3336066721659893E+01    3.3974302878437996E+01
Si    8.8366373072238122E+00    1.0737290873280676E+01    3.5586823563054459E+01
O    7.0929650987151636E+00    1.3834029247591566E+01    3.3685974585858979E+01
O    9.1957038081812765E+00    1.4097017148877493E+01    3.5312234830352324E+01
O    7.4393146158486312E+00    1.0350486468793857E+01    3.6304370681922244E+01
O    8.6502897666868375E+00    1.1736985362169136E+01    3.4281764719564194E+01
O    5.0814100080018934E+00    1.1681788230626040E+01    3.6758320647001405E+01
O    6.4262784942897140E+00    1.2665617518868036E+01    3.1351747424340594E+01
O    9.5331747258237609E+00    1.3710304002532439E+01    3.2677748064636617E+01
Si    1.4168752601323991E+00    1.6113891530153694E+01    3.0398344994578572E+01
O    1.3444846188645307E+00    1.4577126956337223E+01    3.0931687695210048E+01
Si    1.4233698350813961E+00    1.8576296680856569E+01    3.2068551415967512E+01
Si    3.6944234116806842E+00    1.8748548152188263E+01    3.4091511426834018E+01
Si    3.9220696137219173E+00    1.6346785953202755E+01    3.5867707893104658E+01
O    2.4547458275235021E+00    1.9219883028203110E+01    3.3152274106084505E+01
O    4.2372839668574453E+00    2.0022845695272725E+01    3.4946906097001765E+01
O    3.1500690295612990E+00    1.5990622328641432E+01    3.7244190544695563E+01
O    3.1458472846166878E+00    1.7530870582101187E+01    3.5036619132088461E+01
O    4.6792214656040082E-01    1.5632095729209571E+01    3.7083615448815479E+01
O    1.9699126675976693E+00    1.7119011902961137E+01    3.1563395946765738E+01
O    4.9369693761688191E+00    1.8185453825109636E+01    3.3198292146372893E+01
Si    6.1866536141546753E+00    1.6186405106076077E+01    3.0763210681338105E+01
O    5.6371998337774567E+00    1.5154761250704064E+01    3.1899367415197023E+01
Si    6.4530256130748951E+00    1.8513296217296610E+01    3.2709630435278868E+01
Si    9.1163009255535634E+00    1.8144744168502768E+01    3.4159913334686863E+01
Si    9.1586936576487084E+00    1.5619792326559068E+01    3.5943029132871310E+01
O    7.5000082026160984E+00    1.8167935535995959E+01    3.3913408355391823E+01
O    9.5493197168234332E+00    1.9310376881062112E+01    3.5219962694560984E+01
O    7.8361373331059383E+00    1.5940019099779308E+01    3.6803629129455807E+01
O    9.5251919223037103E+00    1.6669333591639582E+01    3.4740691752960224E+01
O    5.4582518737893215E+00    1.6874393733659723E+01    3.6205311927548664E+01
O    6.7653788916527393E+00    1.7564841554795738E+01    3.1418689992434143E+01
O    9.8758605217505924E+00    1.8392914234289897E+01    3.2738562979911364E+01
H    6.6754731891582306E+00    1.0965656317234524E+01    3.6403034769437156E+01