 # Version information for this restart file 
 # current date 2025-01-24 01:26:17.306
 # current working dir /scratch4/nmitra1/silica_cp2k/1000_70_cell222/epoxyadsorb_zslab/dftd3bjrelax
 # Program compiled at                              Wed May 17 21:13:02 EDT 2023
 # Program compiled on                                                      c718
 # Program compiled for                            linux-centos8-cascadelake-gcc
 # Source code revision number                                       git:a8a26f8
 &GLOBAL
   EXTENDED_FFT_LENGTHS  T
   PRINT_LEVEL  MEDIUM
   PROJECT_NAME Silicazslab_epoxy
   RUN_TYPE  GEO_OPT
 &END GLOBAL
 &MOTION
   &GEO_OPT
     TYPE  MINIMIZATION
     OPTIMIZER  BFGS
     MAX_ITER  2000
     MAX_FORCE     1.9000000000000001E-05
     STEP_START_VAL  514
     &PRINT
       &PROGRAM_RUN_INFO  SILENT
         FILENAME ./geom_opt
       &END PROGRAM_RUN_INFO
     &END PRINT
   &END GEO_OPT
 &END MOTION
 &FORCE_EVAL
   METHOD  QS
   STRESS_TENSOR  ANALYTICAL
   &DFT
     BASIS_SET_FILE_NAME ../../../cp2k-data/BASIS_MOLOPT
     POTENTIAL_FILE_NAME ../../../cp2k-data/GTH_POTENTIALS
     MULTIPLICITY  1
     CHARGE  0
     SURFACE_DIPOLE_CORRECTION  T
     SURF_DIP_DIR  Z
     SURF_DIP_POS     5.8000000000000000E+01
     &SCF
       MAX_SCF  500
       EPS_SCF     1.0000000000000000E-08
       SCF_GUESS  ATOMIC
       &OT  T
         MINIMIZER  CG
       &END OT
       &OUTER_SCF  T
         EPS_SCF     1.0000000000000000E-08
         MAX_SCF  20
       &END OUTER_SCF
       &MIXING  T
         METHOD  BROYDEN_MIXING
         ALPHA     2.9999999999999999E-01
         NBUFFER  10
       &END MIXING
     &END SCF
     &QS
       EPS_DEFAULT     9.9999999999999998E-13
       EXTRAPOLATION  USE_PREV_P
       METHOD  GPW
     &END QS
     &MGRID
       CUTOFF     1.0000000000000000E+03
       REL_CUTOFF     7.0000000000000000E+01
     &END MGRID
     &XC
       DENSITY_CUTOFF     1.0000000000000000E-10
       GRADIENT_CUTOFF     1.0000000000000000E-10
       TAU_CUTOFF     1.0000000000000000E-10
       &XC_FUNCTIONAL  NO_SHORTCUT
         &PBE  T
         &END PBE
       &END XC_FUNCTIONAL
       &VDW_POTENTIAL
         POTENTIAL_TYPE  PAIR_POTENTIAL
         &PAIR_POTENTIAL
           R_CUTOFF     2.0000000000000004E+01
           TYPE  DFTD3(BJ)
           PARAMETER_FILE_NAME ../../../cp2k-data/dftd3.dat
           REFERENCE_FUNCTIONAL PBE
           CALCULATE_C9_TERM  T
         &END PAIR_POTENTIAL
       &END VDW_POTENTIAL
     &END XC
     &POISSON
       POISSON_SOLVER  PERIODIC
       PERIODIC  XYZ
     &END POISSON
   &END DFT
   &SUBSYS
     &CELL
       A     1.9875420540000000E+01    0.0000000000000000E+00    0.0000000000000000E+00
       B     0.0000000000000000E+00    1.9875420540000000E+01    0.0000000000000000E+00
       C     0.0000000000000000E+00    0.0000000000000000E+00    6.0000000000000007E+01
       MULTIPLE_UNIT_CELL  1 1 1
     &END CELL
     &COORD
Si    1.3903831724178701E+00    1.2029113388563992E+00    2.3800287870571175E+01
O    7.2328345535849881E-01    2.5073922187680958E-01    2.4960973776647752E+01
Si    1.4122307226210826E+00    3.5535557122236066E+00    2.5764663077668327E+01
Si    4.0483390687859346E+00    3.3501814228583617E+00    2.7204982065540314E+01
Si    4.3781056541382419E+00    9.1925139297764769E-01    2.9015025577927695E+01
O    2.4412638559337867E+00    3.1677078635965912E+00    2.6971032995088926E+01
O    4.3406090805812561E+00    4.5457951955277549E+00    2.8277504143766645E+01
O    3.2281038909747246E+00    1.5156526378269299E+00    3.0005093594331740E+01
O    4.6679132506407681E+00    1.9660909037182850E+00    2.7796842467374216E+01
O    6.5111295096161748E-01    1.8036668536248992E+00    2.9362642546681553E+01
O    1.7625484727573579E+00    2.6766086643372513E+00    2.4424809029332955E+01
O    4.7616260855658030E+00    3.6865911848813435E+00    2.5775624219251625E+01
Si    6.3722887852877177E+00    1.8991577393274883E+00    2.3493720177491163E+01
O    6.2630341676821635E+00    1.0314225029396245E+00    2.4883421841848175E+01
Si    6.2028592560780940E+00    4.2787199730145504E+00    2.5270164033030408E+01
Si    8.6479265936392089E+00    3.6968038699121517E+00    2.7232222904240331E+01
Si    9.0671348173252291E+00    1.2927383741824994E+00    2.9050317639122866E+01
O    7.2921498427955820E+00    4.1394934447733363E+00    2.6462909847322827E+01
O    9.1941103831757687E+00    4.9878704559105760E+00    2.8069525339648834E+01
O    8.2961830564990873E+00    1.0218354581644915E+00    3.0462378718381387E+01
O    8.2743191370467368E+00    2.4533038865495835E+00    2.8222112022354036E+01
O    5.7513438973713926E+00    6.7013329615406603E-01    2.9841490161967261E+01
O    6.6694277954348360E+00    3.4541494737676279E+00    2.3935121091777866E+01
O    9.8218939038446766E+00    3.2040547303894336E+00    2.6213171701507097E+01
Si    1.1558489901504974E+00    6.0185093150289131E+00    2.4107789776951893E+01
O    1.6017996302707567E+00    5.1439483340505117E+00    2.5428591804400959E+01
Si    9.1177542650938537E-01    8.6760481712604811E+00    2.5556442930494558E+01
Si    3.6479834543904590E+00    8.5707449411013084E+00    2.7034379446983316E+01
Si    3.9307939025766543E+00    6.0834922248342158E+00    2.8619266596179521E+01
O    2.0546702837450241E+00    8.6528407486924639E+00    2.6712865186465081E+01
O    3.8903797972930514E+00    9.4214958142998810E+00    2.8399834008976075E+01
O    2.3687384303296817E+00    6.2053241221968998E+00    2.9069527860388707E+01
O    4.1090079754106412E+00    7.0234191496814153E+00    2.7292648254318319E+01
O   -8.2464009863249033E-02    6.6582877431496685E+00    2.9982100804526361E+01
O    1.3338067249601164E+00    7.6290624279364607E+00    2.4364553230320944E+01
O    4.5073875489990547E+00    9.1653671923864408E+00    2.5780113894119147E+01
Si    6.0700513303027401E+00    6.9442731529553772E+00    2.3678852888812198E+01
O    6.0063390665023171E+00    5.8497829558685899E+00    2.4894869901055529E+01
Si    6.0752988066184450E+00    9.4494234217225834E+00    2.5398319898259334E+01
Si    8.3758855929748961E+00    8.7114998142140880E+00    2.7341060090675789E+01
Si    8.6041605618486443E+00    6.1586444068269497E+00    2.9039026962363231E+01
O    6.9969569402795759E+00    9.3283905026801843E+00    2.6734760807890439E+01
O    9.1337241060501757E+00    9.8429251020970909E+00    2.8225329579374222E+01
O    7.3973898011104193E+00    5.5438879731921062E+00    2.9950969940518963E+01
O    7.9569602794944680E+00    7.4107860189311969E+00    2.8222071479017405E+01
O    4.8990006007278577E+00    6.6079633071974397E+00    2.9811984837844687E+01
O    6.5770411166315332E+00    8.3870031011459041E+00    2.4262067419774731E+01
O    9.4090299132121338E+00    8.2079821050129187E+00    2.6175499211411186E+01
Si    1.6970790653429564E+00    1.2943287567341060E+00    3.0512659831571167E+01
O    1.3604174877663173E+00   -2.7655856766284398E-01    3.0802194297919790E+01
Si    1.1693933008469883E+00    3.7105326315932929E+00    3.2248057333214071E+01
Si    3.4844108426313043E+00    3.7636002066740684E+00    3.4225275871677518E+01
Si    3.7066810659614604E+00    1.2804594455546168E+00    3.6015302477170863E+01
O    2.1160495518279587E+00    4.2369181482495515E+00    3.3465710538222218E+01
O    4.1498220937186883E+00    5.0570527879303828E+00    3.4951850714718546E+01
O    2.6059960793779191E+00    6.6667800750634820E-01    3.7029968172472877E+01
O    3.0467593107647599E+00    2.5857587239542741E+00    3.5262518771314532E+01
O    2.0689484765384472E-02    1.5679562094260655E+00    3.6626404979085073E+01
O    1.5247404111401481E+00    2.1609594944944632E+00    3.1886227648769808E+01
O    4.5953746429024571E+00    3.1633436704594073E+00    3.3186152054783939E+01
Si    6.7683448856883244E+00    1.1641736895096455E+00    3.1012346914510090E+01
O    6.6026228646048883E+00    2.1803019742902768E-01    3.2327621210282310E+01
Si    5.9872919771338582E+00    3.7467524594636377E+00    3.2566023754730011E+01
Si    8.6418872872950896E+00    3.4349020068739344E+00    3.4035949662067118E+01
Si    8.8590968358122790E+00    8.5234523281778607E-01    3.5670587420547413E+01
O    7.1092372611387953E+00    3.9161798832178141E+00    3.3748568358514675E+01
O    9.2555065962954579E+00    4.2100261627435760E+00    3.5344228307060106E+01
O    7.4767220014596463E+00    4.5311829638655660E-01    3.6407927554552096E+01
O    8.6708521568405459E+00    1.8358117668379474E+00    3.4360588198274847E+01
O    5.1127222418179556E+00    1.7055484440999800E+00    3.6768541115453317E+01
O    6.4975473362817464E+00    2.7186372975793711E+00    3.1411722139832456E+01
O    9.5251755038508001E+00    3.7773223315728162E+00    3.2707165875271805E+01
Si    1.4181750763297960E+00    6.1623233880456274E+00    3.0386857413213313E+01
O    1.4034632018895317E+00    4.6253378445546272E+00    3.0925180205100968E+01
Si    1.4002111731255895E+00    8.6196418668700403E+00    3.2075383684902185E+01
Si    3.6512828092027103E+00    8.7976048029487490E+00    3.4135942555510418E+01
Si    3.9371959658404609E+00    6.3715766306867767E+00    3.5901447473327138E+01
O    2.3929072004665941E+00    9.2402003678088676E+00    3.3207246302623048E+01
O    4.1484362885073880E+00    1.0090557334537809E+01    3.4996917955155304E+01
O    3.1441090651971257E+00    6.0022988890667381E+00    3.7265249799293734E+01
O    3.1556995180199996E+00    7.5711506659162815E+00    3.5093016052982101E+01
O    4.6870192520347009E-01    5.6866585111676073E+00    3.7078543653366800E+01
O    1.9674470123379015E+00    7.1793546513413267E+00    3.1544250674210318E+01
O    4.8939517963901968E+00    8.2778835988002033E+00    3.3220164659761132E+01
Si    6.1648838610245038E+00    6.2469667488602099E+00    3.0765592137782953E+01
O    5.6783070756750966E+00    5.2123384022178856E+00    3.1924734467077105E+01
Si    6.3933312630368251E+00    8.6047390161704218E+00    3.2684413324465503E+01
Si    9.0937530520766163E+00    8.2119865772969636E+00    3.4027628012435017E+01
Si    9.2986839247182207E+00    5.7925413468327305E+00    3.5837773026771877E+01
O    7.4698325468378419E+00    8.2725771663027103E+00    3.3855934509139047E+01
O    9.5424005295245475E+00    9.3312944981997390E+00    3.5135217735065126E+01
O    8.0077475558193711E+00    6.2006875699689070E+00    3.6721148338765097E+01
O    9.5092225170339706E+00    6.7041483063067302E+00    3.4479616705031297E+01
O    5.4726166914001775E+00    6.8686883439622841E+00    3.6259320966899580E+01
O    6.6930796200300939E+00    7.6590118893093537E+00    3.1389337550988671E+01
O    9.8185826243717873E+00    8.5514333762440202E+00    3.2603091701110330E+01
H    6.6789714563575000E+00    1.0360996364598392E+00    3.6489798212653021E+01
H    7.0887512783701183E+00    6.2861825330593355E+00    3.6370736939588909E+01
H    5.0197063375561051E+00    2.3072300112646538E+00    3.7540030206423779E+01
H    5.5787486464760043E+00    7.7902093235954526E+00    3.6553385555423837E+01
H    1.6635878264817738E+00    9.3598702483860785E-01    3.6888524214206512E+01
H    2.1679826303607426E+00    5.8663545001887352E+00    3.7157508326713405E+01
H    6.1114497274569017E-02    2.5382739492191679E+00    3.6511986100465933E+01
H    1.7215876669457414E-01    6.1318039625129339E+00    3.7891348718243208E+01
O    4.4606378506912436E-01    1.3385423920297643E+00    2.2496529257110506E+01
O    2.8500061162582324E+00    5.7035180411335695E-01    2.3335979429685359E+01
H    2.8723729463702830E+00   -3.7556770408828039E-01    2.3103721069689765E+01
O    2.2751745330685464E+00    5.7374231544905765E+00    2.2907385450994347E+01
H    2.3107701084884553E+00    4.8076449110102857E+00    2.2620008127437657E+01
O   -3.4544543427397367E-01    5.5343216638583979E+00    2.3751072534158084E+01
O    5.0920293250596753E+00    1.7500531146614637E+00    2.2518360276156852E+01
O    7.7018349415094125E+00    1.4575303279208971E+00    2.2601500976340475E+01
H    7.5040388839324708E+00    7.2812561347030014E-01    2.1989192705155389E+01
O    7.2891269881440275E+00    6.5455478615087861E+00    2.2616625644295532E+01
H    7.0726952729889598E+00    5.7963500874925691E+00    2.2035613402379099E+01
O    4.6528322924436187E+00    7.1456318613956862E+00    2.2915715039858529E+01
H   -5.2270807062190061E-01    1.5000630820895933E+00    2.2625821733062004E+01
H    4.2450043585822890E+00    1.3620321125943009E+00    2.2864670583755764E+01
H    3.8778570619519579E+00    6.5379728594118607E+00    2.3001778528637470E+01
H   -1.0323348695633072E+00    6.0722921423849598E+00    2.3291463800975734E+01
Si    1.1337104333755979E+01    1.1975378825384462E+00    2.3803497608089664E+01
O    1.0656993748699376E+01    2.3501749789573939E-01    2.4947807403857283E+01
Si    1.1355044322686952E+01    3.5484425558378629E+00    2.5777709804997443E+01
Si    1.3992030380668622E+01    3.3569951456795959E+00    2.7216247837960989E+01
Si    1.4317942036427402E+01    9.1010397562130008E-01    2.9009020367692312E+01
O    1.2385157319250096E+01    3.1663182189594354E+00    2.6984935404258550E+01
O    1.4280917294656879E+01    4.5580579371213705E+00    2.8283959227874774E+01
O    1.3173966501919402E+01    1.5048902388155871E+00    3.0006712135179828E+01
O    1.4619987464630105E+01    1.9760352992059269E+00    2.7809713382252617E+01
O    1.0594469377323378E+01    1.7829046270810980E+00    2.9365126834650631E+01
O    1.1706009251120340E+01    2.6652966392082802E+00    2.4442729744108217E+01
O    1.4699732774779241E+01    3.6965252668459838E+00    2.5784460922630032E+01
Si    1.6283609909478514E+01    1.9263646202649380E+00    2.3468258437320738E+01
O    1.6152193120631651E+01    1.0379070365157925E+00    2.4841111934678104E+01
Si    1.6137282008472301E+01    4.2908247711782694E+00    2.5272022066828345E+01
Si    1.8591411676754500E+01    3.7107557878291719E+00    2.7223159678653612E+01
Si    1.9002958573885699E+01    1.3073683418199389E+00    2.9041081106105562E+01
O    1.7231682110554040E+01    4.1504880299826423E+00    2.6459792782960200E+01
O    1.9157702004820298E+01    5.0086997296336540E+00    2.8038168960089916E+01
O    1.8232827404569957E+01    1.0068982548615830E+00    3.0448363005338308E+01
O    1.8213065410886216E+01    2.4811949648517833E+00    2.8229338700838969E+01
O    1.5688187416753694E+01    6.2325059576679687E-01    2.9831426294648086E+01
O    1.6598789796608507E+01    3.4705158085481567E+00    2.3932859837720851E+01
O    1.9755712222857053E+01    3.2022633035768591E+00    2.6200710747726013E+01
Si    1.1097626800224106E+01    6.0177891162502464E+00    2.4122107214244096E+01
O    1.1546265711785384E+01    5.1379480609093635E+00    2.5437910363251081E+01
Si    1.0843931824860054E+01    8.6811434080065979E+00    2.5568770686338002E+01
Si    1.3584456887111234E+01    8.5883855313293456E+00    2.7039464872559442E+01
Si    1.3868640360207520E+01    6.0962246846022401E+00    2.8624666090595046E+01
O    1.1991630179651871E+01    8.6916719164540570E+00    2.6720970881359392E+01
O    1.3845055304625788E+01    9.4390464126589873E+00    2.8401645070782155E+01
O    1.2311421268469607E+01    6.2077165789683804E+00    2.9088843429866007E+01
O    1.4028392443310294E+01    7.0357152257614990E+00    2.7295144775195574E+01
O    9.8462022814922907E+00    6.6952665908012552E+00    2.9945908179533404E+01
O    1.1277054919218250E+01    7.6267329805831166E+00    2.4386974499545527E+01
O    1.4446058678321531E+01    9.1714188053534862E+00    2.5780992757680487E+01
Si    1.6004070052628087E+01    6.9533579727039685E+00    2.3679467113342596E+01
O    1.5940616910769940E+01    5.8626405804042481E+00    2.4899193062952044E+01
Si    1.6014874955577092E+01    9.4524265964378085E+00    2.5403584026611210E+01
Si    1.8329284061723023E+01    8.7235969657416312E+00    2.7332053822994787E+01
Si    1.8566447578241373E+01    6.1568570838322003E+00    2.9033779049330089E+01
O    1.6932183782124788E+01    9.3158492888482556E+00    2.6741926321868892E+01
O    1.9094524395278071E+01    9.8787953425771970E+00    2.8178855096971944E+01
O    1.7338609297060298E+01    5.5179223467481089E+00    2.9901460785531771E+01
O    1.7940308297685132E+01    7.4371781769154435E+00    2.8245529820457399E+01
O    1.4856746417354850E+01    6.6309540286921136E+00    2.9799408473777216E+01
O    1.6513225258085562E+01    8.3970126898622510E+00    2.4259039610684717E+01
O    1.9344245656606930E+01    8.2136178190635221E+00    2.6153730777159542E+01
Si    1.1643265987994370E+01    1.2891968219164294E+00    3.0519719885006001E+01
O    1.1312155575520299E+01   -2.7862427852676702E-01    3.0833484890576290E+01
Si    1.1085299388805609E+01    3.7151886802371008E+00    3.2237525336814727E+01
Si    1.3418850847592434E+01    3.7847392844681789E+00    3.4177001362689452E+01
Si    1.3621240262345328E+01    1.3562243408734034E+00    3.6038923197363005E+01
O    1.2060028487148275E+01    4.2766205150280072E+00    3.3419420584343861E+01
O    1.4130607494563657E+01    5.0654417521252606E+00    3.4885632440154090E+01
O    1.2582670088994723E+01    8.4739925380333603E-01    3.7169888143625130E+01
O    1.2960040702078063E+01    2.6212017462119035E+00    3.5227215554928897E+01
O    9.9668087952060489E+00    1.5680341188996056E+00    3.6685276933345342E+01
O    1.1476774194798239E+01    2.1721723306310352E+00    3.1882175856990983E+01
O    1.4517806847120305E+01    3.1460373408838440E+00    3.3146176121762252E+01
Si    1.6703455013116457E+01    1.1359628063668896E+00    3.0995185774166817E+01
O    1.6544644343195259E+01    2.1162167225329973E-01    3.2327447670659581E+01
Si    1.5910204094159615E+01    3.7217293044496569E+00    3.2521199649426968E+01
Si    1.8572557338983732E+01    3.4105537276215725E+00    3.3981153797911965E+01
Si    1.8804940734065585E+01    8.4181175727935620E-01    3.5605515852579927E+01
O    1.7036815468807237E+01    3.8786423409954001E+00    3.3703708158263694E+01
O    1.9147781044761281E+01    4.1596967709917605E+00    3.5327051135265570E+01
O    1.7393829154614814E+01    4.6120860992955470E-01    3.6301860448447123E+01
O    1.8641825323032933E+01    1.8082033711030800E+00    3.4274981910219623E+01
O    1.5061506404775631E+01    1.8278023734130104E+00    3.6724743614078264E+01
O    1.6416708323335936E+01    2.6944584429751033E+00    3.1367534751829933E+01
O    1.9472612394268470E+01    3.8157060327355832E+00    3.2683950572683180E+01
Si    1.1327118267386243E+01    6.1656895067918924E+00    3.0381001968057546E+01
O    1.1266961541911048E+01    4.6243314099954249E+00    3.0901551854811963E+01
Si    1.1343378978518329E+01    8.6426644565652033E+00    3.2032626054579588E+01
Si    1.3629259742141265E+01    8.7832430523509615E+00    3.4060642361959786E+01
Si    1.3923078202131800E+01    6.3799241183800230E+00    3.5843988791206591E+01
O    1.2352893748265968E+01    9.2356016373459440E+00    3.3164811814270557E+01
O    1.4197456492017206E+01    1.0084329852512965E+01    3.4863942575867092E+01
O    1.3187164671605593E+01    5.9593486404047225E+00    3.7221549799281320E+01
O    1.3134433241366674E+01    7.5844883443208317E+00    3.5055713955451267E+01
O    1.0568242527703958E+01    5.9460473036977239E+00    3.6851966473079024E+01
O    1.1860688941430160E+01    7.1640446541204712E+00    3.1559535941520089E+01
O    1.4850813926514263E+01    8.2215613374782848E+00    3.3134201716314898E+01
Si    1.6123983963933185E+01    6.2284877729579771E+00    3.0735387230556871E+01
O    1.5615689970136318E+01    5.1882875067044525E+00    3.1880579126778567E+01
Si    1.6375757411942047E+01    8.5494499435115756E+00    3.2671773843045770E+01
Si    1.9031295252432120E+01    8.1762878418831733E+00    3.4112373021867946E+01
Si    1.9120194789429824E+01    5.6882738838802567E+00    3.5947116438397501E+01
O    1.7411490660120098E+01    8.1950003089864225E+00    3.3883843726710133E+01
O    1.9476708248299424E+01    9.3602427139730207E+00    3.5146248420678070E+01
O    1.7811692722873762E+01    6.0063268162850774E+00    3.6827875060133692E+01
O    1.9453191707004116E+01    6.7162754894961543E+00    3.4716585316910219E+01
O    1.5459595272155511E+01    6.9170524933275512E+00    3.6168822364842498E+01
O    1.6709010822378669E+01    7.6086093189737980E+00    3.1381617398177514E+01
O    1.9774221591457113E+01    8.4080430426162032E+00    3.2679150052092517E+01
H    1.6636817289889073E+01    1.0861754544990292E+00    3.6401558406816832E+01
H    1.6920913526490484E+01    6.2663982110564556E+00    3.6464185275848102E+01
H    1.4996432285504069E+01    2.5872004479112780E+00    3.7327536671942298E+01
H    1.5575266296359338E+01    7.8732561885648940E+00    3.6312985520439248E+01
H    1.1621011003627402E+01    1.0390903363314312E+00    3.7017228069592456E+01
H    1.2210296272362159E+01    5.7823467489769307E+00    3.7106424750646866E+01
H    1.0023657800235826E+01    2.5394034873111013E+00    3.6583047147779162E+01
H    1.0424372994751943E+01    6.7442253260900076E+00    3.7483876493407067E+01
O    1.0403266136277981E+01    1.3465159011360066E+00    2.2493844603212914E+01
O    1.2800839710547027E+01    5.6981322651973698E-01    2.3344685006940210E+01
H    1.2827207910736750E+01   -3.7439681095612032E-01    2.3106217053808539E+01
O    1.2213375796329686E+01    5.7434147758941139E+00    2.2916505036387466E+01
H    1.2249024113769366E+01    4.8155786914015044E+00    2.2623027381219586E+01
O    9.5957878750448327E+00    5.5348015275102664E+00    2.3765636685263843E+01
O    1.5000249960154152E+01    1.8105117036561220E+00    2.2491461458426294E+01
O    1.7613447115176559E+01    1.4843092824944732E+00    2.2576766472378658E+01
H    1.7413038334048903E+01    7.6935018272539357E-01    2.1948629586403207E+01
O    1.7221435437154028E+01    6.5515036815517735E+00    2.2616418240122613E+01
H    1.7001329352538541E+01    5.8043366323054570E+00    2.2034172947001753E+01
O    1.4586511118347671E+01    7.1527085504103622E+00    2.2916631243305584E+01
H    9.4327144299350678E+00    1.4992286914137356E+00    2.2623221512089323E+01
H    1.4165386725618696E+01    1.3949231166063365E+00    2.2835800968115336E+01
H    1.3811996324095045E+01    6.5446518350310923E+00    2.3005460914878096E+01
H    8.9115861031857548E+00    6.0709973018013121E+00    2.3300218324306208E+01
Si    1.4103798434669526E+00    1.1151801003777978E+01    2.3802739078080418E+01
O    7.5907489663540650E-01    1.0183689937334234E+01    2.4957575576392010E+01
Si    1.4108297069723272E+00    1.3516780279243406E+01    2.5765075853055031E+01
Si    4.0508240915366960E+00    1.3315378441523038E+01    2.7205772883247640E+01
Si    4.3722006415293366E+00    1.0856475375492556E+01    2.8987715656422903E+01
O    2.4416887486863974E+00    1.3150454240174216E+01    2.6975092546466630E+01
O    4.3578349295398624E+00    1.4497392192753072E+01    2.8291032354514865E+01
O    3.2397866999261642E+00    1.1440227354268707E+01    3.0007130255953715E+01
O    4.6474784526335142E+00    1.1912898635430706E+01    2.7775300190212249E+01
O    6.6052921172625856E-01    1.1740490356790620E+01    2.9370122616699128E+01
O    1.7622510610126041E+00    1.2627260757780009E+01    2.4434299862787043E+01
O    4.7732534038720917E+00    1.3661514081845041E+01    2.5782976088297893E+01
Si    6.3611887236742870E+00    1.1876956951609094E+01    2.3474242245284856E+01
O    6.2121806807901985E+00    1.0963474749701223E+01    2.4827317563049149E+01
Si    6.2224741869550764E+00    1.4243404722798340E+01    2.5286980659108334E+01
Si    8.6560804744905369E+00    1.3642363002853855E+01    2.7247379363301064E+01
Si    9.0538250954338348E+00    1.1237687985444543E+01    2.9060872772204622E+01
O    7.3034630925750967E+00    1.4120497038965945E+01    2.6491172450921638E+01
O    9.2312744440752681E+00    1.4908686153681096E+01    2.8105593009996873E+01
O    8.2838595687805867E+00    1.0988501730718875E+01    3.0479264245709015E+01
O    8.2627819228833470E+00    1.2388369305064586E+01    2.8216150419053740E+01
O    5.7677660693861119E+00    1.0602215574051078E+01    2.9775078563337910E+01
O    6.7016216324972175E+00    1.3406790404985262E+01    2.3965401286353181E+01
O    9.8204084255422455E+00    1.3147383582392550E+01    2.6217855022076968E+01
Si    1.1583003508450262E+00    1.5980066149280596E+01    2.4099213264288785E+01
O    1.6005585937744384E+00    1.5104174614971923E+01    2.5418551676944823E+01
Si    9.0907839172526994E-01    1.8624112612332254E+01    2.5565650338854809E+01
Si    3.6489606533355579E+00    1.8525278999787112E+01    2.7045714453395270E+01
Si    3.9516912794916506E+00    1.6038314067511585E+01    2.8628891150209522E+01
O    2.0574799185322550E+00    1.8629084011826556E+01    2.6718136890259263E+01
O    3.9058516561215169E+00    1.9357098733348895E+01    2.8421479923660534E+01
O    2.3968672119200165E+00    1.6142072315612896E+01    2.9104462544384898E+01
O    4.0929999214118737E+00    1.6970366387102342E+01    2.7291933602511605E+01
O   -6.4692569142900877E-02    1.6644344157974633E+01    2.9966255680637978E+01
O    1.3458087398306118E+00    1.7587663270984265E+01    2.4368744676408223E+01
O    4.5134460421824585E+00    1.9121570704295472E+01    2.5794954417802501E+01
Si    6.0794528553459930E+00    1.6900096697326667E+01    2.3676918456057624E+01
O    6.0345867894394605E+00    1.5812448089378151E+01    2.4898668379621345E+01
Si    6.0877647601276070E+00    1.9384007313293981E+01    2.5425276295467818E+01
Si    8.3964985466933673E+00    1.8626116353315204E+01    2.7351855489014461E+01
Si    8.6467835674344045E+00    1.6073614625781666E+01    2.9085447047146641E+01
O    6.9902177924376412E+00    1.9203539671320701E+01    2.6768195117044527E+01
O    9.1571870990019111E+00    1.9788199848372884E+01    2.8191636389546769E+01
O    7.4169981979155812E+00    1.5459003309665604E+01    2.9968211171064631E+01
O    8.0249913372186281E+00    1.7342060288165865E+01    2.8275268764197598E+01
O    4.9492833633669617E+00    1.6587244369877837E+01    2.9789424429881567E+01
O    6.5751076279517857E+00    1.8347143280338987E+01    2.4259316787736406E+01
O    9.4079149841965055E+00    1.8123688109233878E+01    2.6166618299316955E+01
Si    1.7074939113588998E+00    1.1233561789012915E+01    3.0521419268170551E+01
O    1.3603221899865257E+00    9.6689948578280180E+00    3.0828265539449045E+01
Si    1.1487405619822211E+00    1.3653603349492926E+01    3.2254316231469353E+01
Si    3.4626480573270610E+00    1.3727619810816590E+01    3.4216349729057185E+01
Si    3.6470397515355972E+00    1.1254789448824530E+01    3.6033820382219183E+01
O    2.0993096154599300E+00    1.4210154283038589E+01    3.3457916511972016E+01
O    4.1457764327943192E+00    1.5011210963675437E+01    3.4948279408609963E+01
O    2.5824179654918300E+00    1.0728834741091685E+01    3.7132552324026811E+01
O    3.0115265799262714E+00    1.2557125925264520E+01    3.5259496996125506E+01
O   -4.3066416053231422E-02    1.1478950884063657E+01    3.6640046582424723E+01
O    1.5469839594470107E+00    1.2115717696477343E+01    3.1887401828802233E+01
O    4.5660544274610775E+00    1.3110230921165639E+01    3.3180319264577385E+01
Si    6.7364105564717205E+00    1.1113237059748576E+01    3.0977665158487593E+01
O    6.5195431375050346E+00    1.0184997518960785E+01    3.2295055161284481E+01
Si    5.9460019576940120E+00    1.3684014544163157E+01    3.2526246879700516E+01
Si    8.6176206065973506E+00    1.3335469275850715E+01    3.3975844707252634E+01
Si    8.8364783488798491E+00    1.0736389317112685E+01    3.5588005395713452E+01
O    7.0931519243987138E+00    1.3831872848480419E+01    3.3688549667499018E+01
O    9.1967538664212327E+00    1.4096454629366272E+01    3.5313641225254145E+01
O    7.4382238877139475E+00    1.0350488343359496E+01    3.6304263496797716E+01
O    8.6525314857566311E+00    1.1736372434155067E+01    3.4282919802892152E+01
O    5.0809624285143098E+00    1.1683182985377139E+01    3.6759173987621310E+01
O    6.4257422868525023E+00    1.2667747001070925E+01    3.1351968333401690E+01
O    9.5330128241696190E+00    1.3710746728931483E+01    3.2678878107141685E+01
Si    1.4173291786827042E+00    1.6114417057701445E+01    3.0398636950428475E+01
O    1.3437532730482373E+00    1.4577701227097785E+01    3.0931909418365496E+01
Si    1.4255575998918060E+00    1.8576221885318031E+01    3.2069870151512880E+01
Si    3.6972600391485981E+00    1.8750073681875797E+01    3.4093594422468762E+01
Si    3.9241924206885721E+00    1.6347393829829578E+01    3.5870048507611500E+01
O    2.4569186597608454E+00    1.9218973475828701E+01    3.3153995146462123E+01
O    4.2405009341854107E+00    2.0026158027352928E+01    3.4945932114682456E+01
O    3.1515115900937656E+00    1.5989463394999090E+01    3.7245686486008587E+01
O    3.1497322982793237E+00    1.7534652002747389E+01    3.5042068322180441E+01
O    4.6929175242307403E-01    1.5631689588573355E+01    3.7084327094839004E+01
O    1.9713287798622134E+00    1.7119004452447253E+01    3.1563671841478023E+01
O    4.9393503002874866E+00    1.8185493063628783E+01    3.3200684737595864E+01
Si    6.1875876229361584E+00    1.6187327835200104E+01    3.0764970838453255E+01
O    5.6397949473555364E+00    1.5157018419084933E+01    3.1903129764466780E+01
Si    6.4547142860685236E+00    1.8514491992721268E+01    3.2710525355638005E+01
Si    9.1188676096403718E+00    1.8144273914927403E+01    3.4160193433558881E+01
Si    9.1608318155571613E+00    1.5619368974128589E+01    3.5944243582738352E+01
O    7.5025871690999626E+00    1.8169203976451577E+01    3.3913593358030703E+01
O    9.5541733246427416E+00    1.9309437693097539E+01    3.5219967004506259E+01
O    7.8393987400307248E+00    1.5939883326850506E+01    3.6806566294516919E+01
O    9.5259758929321965E+00    1.6668459118959948E+01    3.4741178816692880E+01
O    5.4611561653355301E+00    1.6872253569532738E+01    3.6208780333593673E+01
O    6.7659911568369280E+00    1.7566721653018149E+01    3.1418812513669966E+01
O    9.8783084779111832E+00    1.8391355350720005E+01    3.2738659500859363E+01
H    6.6750916741760520E+00    1.0966441806895469E+01    3.6403502677833735E+01